plugin load chromatin.so
variable fname index nucl.txt
variable simname index nucl
variable SEED equal XXX
variable I index YYY

variable a equal 8.0
variable l equal 1.0/${a}
variable Q equal 3.5*${a}

# Initialization
units	real
atom_style   hybrid ellipsoid angle charge

boundary s s s

log log.${simname}_${I}.txt
read_data ${fname}

set type 1 mass 71.08
set type 2 mass 156.2
set type 3 mass 114.1
set type 4 mass 115.1
set type 5 mass 103.1
set type 6 mass 128.1
set type 7 mass 129.1
set type 8 mass 57.05
set type 9 mass 137.1
set type 10 mass 113.2
set type 11 mass 113.2
set type 12 mass 128.2
set type 13 mass 131.2
set type 14 mass 147.2
set type 15 mass 97.12
set type 16 mass 87.08
set type 17 mass 101.1
set type 18 mass 186.2
set type 19 mass 163.2
set type 20 mass 99.07
set type 21 mass 71.08
set type 22 mass 156.2
set type 23 mass 114.1
set type 24 mass 115.1
set type 25 mass 103.1
set type 26 mass 128.1
set type 27 mass 129.1
set type 28 mass 57.05
set type 29 mass 137.1
set type 30 mass 113.2
set type 31 mass 113.2
set type 32 mass 128.2
set type 33 mass 131.2
set type 34 mass 147.2
set type 35 mass 97.12
set type 36 mass 87.08
set type 37 mass 101.1
set type 38 mass 186.2
set type 39 mass 163.2
set type 40 mass 99.07
set type 41 mass 650.0
set type 42 mass 0.000001
pair_style ljlambda $l 20.34 $Q
dielectric  80.0

bond_style hybrid harmonic harmonic/DNA zero

bond_coeff 1 harmonic 10 3.8
bond_coeff 2 harmonic/DNA 0 0
bond_coeff 3 zero  
bond_coeff 4 harmonic 10 3.77093940550627
bond_coeff 5 harmonic 10 5.5279357811031
bond_coeff 6 harmonic 10 5.13899805409576
bond_coeff 7 harmonic 10 6.1074749283153
bond_coeff 8 harmonic 10 3.81403539574555
bond_coeff 9 harmonic 10 5.34514181289888
bond_coeff 10 harmonic 10 4.69356090830831
bond_coeff 11 harmonic 10 5.97284639012255
bond_coeff 12 harmonic 10 3.76641115652553
bond_coeff 13 harmonic 10 5.08334476501447
bond_coeff 14 harmonic 10 4.64924036806014
bond_coeff 15 harmonic 10 6.15441548808658
bond_coeff 16 harmonic 10 7.49934343792842
bond_coeff 17 harmonic 10 5.96395556656823
bond_coeff 18 harmonic 10 3.77868032519291
bond_coeff 19 harmonic 10 5.39313461727037
bond_coeff 20 harmonic 10 5.27068847495277
bond_coeff 21 harmonic 10 6.62891612558192
bond_coeff 22 harmonic 10 6.38222226187713
bond_coeff 23 harmonic 10 3.81346640210715
bond_coeff 24 harmonic 10 5.5120607761526
bond_coeff 25 harmonic 10 5.42379756259394
bond_coeff 26 harmonic 10 6.39926480152213
bond_coeff 27 harmonic 10 3.79706017861187
bond_coeff 28 harmonic 10 5.49490982637568
bond_coeff 29 harmonic 10 5.01788660692926
bond_coeff 30 harmonic 10 6.23247711588257
bond_coeff 31 harmonic 10 6.40991513204349
bond_coeff 32 harmonic 10 3.78957543796136
bond_coeff 33 harmonic 10 5.31302493877075
bond_coeff 34 harmonic 10 5.3751622301099
bond_coeff 35 harmonic 10 6.00007016625639
bond_coeff 36 harmonic 10 4.56347126648125
bond_coeff 37 harmonic 10 5.6143794848585
bond_coeff 38 harmonic 10 5.8140528033378
bond_coeff 39 harmonic 10 7.28433833645858
bond_coeff 40 harmonic 10 3.7925708958436
bond_coeff 41 harmonic 10 5.75922468740368
bond_coeff 42 harmonic 10 5.39129910132984
bond_coeff 43 harmonic 10 6.33510773389056
bond_coeff 44 harmonic 10 3.7916873552549
bond_coeff 45 harmonic 10 5.59139660550026
bond_coeff 46 harmonic 10 5.28266088254772
bond_coeff 47 harmonic 10 6.64682495632313
bond_coeff 48 harmonic 10 3.79293619772334
bond_coeff 49 harmonic 10 5.12107986659064
bond_coeff 50 harmonic 10 5.1004667433481
bond_coeff 51 harmonic 10 7.38463573915465
bond_coeff 52 harmonic 10 7.30561516916954
bond_coeff 53 harmonic 10 6.4527199691293
bond_coeff 54 harmonic 10 4.96490140889022
bond_coeff 55 harmonic 10 3.79458324457377
bond_coeff 56 harmonic 10 5.66777575420904
bond_coeff 57 harmonic 10 4.72438747352501
bond_coeff 58 harmonic 10 3.78794588134518
bond_coeff 59 harmonic 10 6.8661178259625
bond_coeff 60 harmonic 10 3.79274517994553
bond_coeff 61 harmonic 10 5.94470428196391
bond_coeff 62 harmonic 10 3.80202064697183
bond_coeff 63 harmonic 10 6.64605115839474
bond_coeff 64 harmonic 10 3.78168441306252
bond_coeff 65 harmonic 10 6.366070137848
bond_coeff 66 harmonic 10 3.78057614656814
bond_coeff 67 harmonic 10 5.77173414148642
bond_coeff 68 harmonic 10 7.31780903003078
bond_coeff 69 harmonic 10 3.77774999172789
bond_coeff 70 harmonic 10 6.57214774636115
bond_coeff 71 harmonic 10 5.81339255512648
bond_coeff 72 harmonic 10 6.25594149589013
bond_coeff 73 harmonic 10 6.29698729552475
bond_coeff 74 harmonic 10 3.78103438228216
bond_coeff 75 harmonic 10 6.12645354181355
bond_coeff 76 harmonic 10 6.93791856394986
bond_coeff 77 harmonic 10 5.38491281266466
bond_coeff 78 harmonic 10 3.81332322259732
bond_coeff 79 harmonic 10 5.81871197087466
bond_coeff 80 harmonic 10 5.60215904808138
bond_coeff 81 harmonic 10 6.14780196493023
bond_coeff 82 harmonic 10 3.80484704028953
bond_coeff 83 harmonic 10 5.60721517332802
bond_coeff 84 harmonic 10 5.15598399919937
bond_coeff 85 harmonic 10 6.24624511206532
bond_coeff 86 harmonic 10 3.8279763583387
bond_coeff 87 harmonic 10 5.37548788483427
bond_coeff 88 harmonic 10 5.12970145330115
bond_coeff 89 harmonic 10 6.42063820815346
bond_coeff 90 harmonic 10 3.79053624174734
bond_coeff 91 harmonic 10 5.44186457016343
bond_coeff 92 harmonic 10 5.23372563285467
bond_coeff 93 harmonic 10 6.28004020687767
bond_coeff 94 harmonic 10 3.79010725441906
bond_coeff 95 harmonic 10 5.45461245186126
bond_coeff 96 harmonic 10 4.93802814896797
bond_coeff 97 harmonic 10 6.27256135880711
bond_coeff 98 harmonic 10 7.37692388465546
bond_coeff 99 harmonic 10 3.78866810370082
bond_coeff 100 harmonic 10 5.23630738211577
bond_coeff 101 harmonic 10 5.04873479200485
bond_coeff 102 harmonic 10 6.26931710794726
bond_coeff 103 harmonic 10 6.82233024706368
bond_coeff 104 harmonic 10 3.8084139743468
bond_coeff 105 harmonic 10 5.47673744121443
bond_coeff 106 harmonic 10 5.44142214866665
bond_coeff 107 harmonic 10 5.96314103472322
bond_coeff 108 harmonic 10 3.79835438051797
bond_coeff 109 harmonic 10 5.79751205259636
bond_coeff 110 harmonic 10 5.2924812706329
bond_coeff 111 harmonic 10 6.26846273020747
bond_coeff 112 harmonic 10 3.81429705188256
bond_coeff 113 harmonic 10 5.39851924142167
bond_coeff 114 harmonic 10 5.26698595023757
bond_coeff 115 harmonic 10 5.88622230297156
bond_coeff 116 harmonic 10 7.39901567777768
bond_coeff 117 harmonic 10 3.79195042161682
bond_coeff 118 harmonic 10 5.47517990571998
bond_coeff 119 harmonic 10 4.84183322719813
bond_coeff 120 harmonic 10 5.79450342997567
bond_coeff 121 harmonic 10 3.80855287478066
bond_coeff 122 harmonic 10 5.4829970818887
bond_coeff 123 harmonic 10 5.11805255932371
bond_coeff 124 harmonic 10 6.89541623109149
bond_coeff 125 harmonic 10 3.78358745108396
bond_coeff 126 harmonic 10 5.27789399287254
bond_coeff 127 harmonic 10 5.50022563173548
bond_coeff 128 harmonic 10 7.32264733549281
bond_coeff 129 harmonic 10 6.61335867770681
bond_coeff 130 harmonic 10 3.79485032642923
bond_coeff 131 harmonic 10 5.539475065383
bond_coeff 132 harmonic 10 5.48725669164475
bond_coeff 133 harmonic 10 6.5468791801896
bond_coeff 134 harmonic 10 6.07994884846904
bond_coeff 135 harmonic 10 7.11287136113119
bond_coeff 136 harmonic 10 3.81941736394441
bond_coeff 137 harmonic 10 5.16032605558991
bond_coeff 138 harmonic 10 5.15922843068612
bond_coeff 139 harmonic 10 5.26787632732584
bond_coeff 140 harmonic 10 7.21773129175643
bond_coeff 141 harmonic 10 7.12730923981835
bond_coeff 142 harmonic 10 3.81407577271349
bond_coeff 143 harmonic 10 6.03380568132584
bond_coeff 144 harmonic 10 7.24760801920192
bond_coeff 145 harmonic 10 3.80668057498919
bond_coeff 146 harmonic 10 6.89764264078678
bond_coeff 147 harmonic 10 6.70522669266298
bond_coeff 148 harmonic 10 3.82081313335264
bond_coeff 149 harmonic 10 6.76269140209724
bond_coeff 150 harmonic 10 6.73316827355443
bond_coeff 151 harmonic 10 7.44669174868948
bond_coeff 152 harmonic 10 3.81285063961335
bond_coeff 153 harmonic 10 5.82498188838386
bond_coeff 154 harmonic 10 3.81279372639014
bond_coeff 155 harmonic 10 6.90737555081524
bond_coeff 156 harmonic 10 3.78545386974931
bond_coeff 157 harmonic 10 6.74727381984754
bond_coeff 158 harmonic 10 5.60626194536074
bond_coeff 159 harmonic 10 5.93867779897175
bond_coeff 160 harmonic 10 7.24969357973149
bond_coeff 161 harmonic 10 3.81801794128838
bond_coeff 162 harmonic 10 6.78287873988618
bond_coeff 163 harmonic 10 6.16865155443231
bond_coeff 164 harmonic 10 4.39901682197284
bond_coeff 165 harmonic 10 6.13369594942562
bond_coeff 166 harmonic 10 3.7990589624274
bond_coeff 167 harmonic 10 5.97804692186335
bond_coeff 168 harmonic 10 6.19784527073725
bond_coeff 169 harmonic 10 6.76135385851088
bond_coeff 170 harmonic 10 5.32754971821005
bond_coeff 171 harmonic 10 4.84552215968519
bond_coeff 172 harmonic 10 6.31220571591263
bond_coeff 173 harmonic 10 3.81251806553096
bond_coeff 174 harmonic 10 5.20074658102085
bond_coeff 175 harmonic 10 5.09343155446306
bond_coeff 176 harmonic 10 6.93535846225701
bond_coeff 177 harmonic 10 6.66623739451273
bond_coeff 178 harmonic 10 6.2321837264317
bond_coeff 179 harmonic 10 5.16079393116989
bond_coeff 180 harmonic 10 6.42833897674975
bond_coeff 181 harmonic 10 3.82607305209923
bond_coeff 182 harmonic 10 5.73940284350208
bond_coeff 183 harmonic 10 5.87301260002053
bond_coeff 184 harmonic 10 7.03965027540431
bond_coeff 185 harmonic 10 3.79518721540848
bond_coeff 186 harmonic 10 5.21870961062215
bond_coeff 187 harmonic 10 4.95505509555646
bond_coeff 188 harmonic 10 6.17280325297997
bond_coeff 189 harmonic 10 5.86378742793428
bond_coeff 190 harmonic 10 3.79183860416026
bond_coeff 191 harmonic 10 5.47866671736838
bond_coeff 192 harmonic 10 5.02126537836829
bond_coeff 193 harmonic 10 6.24471624655597
bond_coeff 194 harmonic 10 6.94231279906057
bond_coeff 195 harmonic 10 5.56309742859138
bond_coeff 196 harmonic 10 3.88538402220425
bond_coeff 197 harmonic 10 7.4897282994779
bond_coeff 198 harmonic 10 6.30558371604089
bond_coeff 199 harmonic 10 3.78135015569836
bond_coeff 200 harmonic 10 5.24846472789901
bond_coeff 201 harmonic 10 4.96233825932898
bond_coeff 202 harmonic 10 6.30036864000831
bond_coeff 203 harmonic 10 3.78859696985573
bond_coeff 204 harmonic 10 5.40297751244627
bond_coeff 205 harmonic 10 5.13959940073154
bond_coeff 206 harmonic 10 6.0047077364348
bond_coeff 207 harmonic 10 3.7785474722438
bond_coeff 208 harmonic 10 5.46227800464238
bond_coeff 209 harmonic 10 5.01312557193614
bond_coeff 210 harmonic 10 6.05937141954511
bond_coeff 211 harmonic 10 6.77005605589792
bond_coeff 212 harmonic 10 6.9167868262655
bond_coeff 213 harmonic 10 7.44059278552456
bond_coeff 214 harmonic 10 6.69111081958743
bond_coeff 215 harmonic 10 3.85870962887855
bond_coeff 216 harmonic 10 5.51745240124462
bond_coeff 217 harmonic 10 5.14184762512465
bond_coeff 218 harmonic 10 5.95365173653952
bond_coeff 219 harmonic 10 6.74668281453929
bond_coeff 220 harmonic 10 3.79170001450536
bond_coeff 221 harmonic 10 5.30442730179234
bond_coeff 222 harmonic 10 4.83897809459807
bond_coeff 223 harmonic 10 5.7994922191516
bond_coeff 224 harmonic 10 3.79050471573379
bond_coeff 225 harmonic 10 5.55393806231219
bond_coeff 226 harmonic 10 5.43586561644049
bond_coeff 227 harmonic 10 6.04147068187872
bond_coeff 228 harmonic 10 3.78999182057165
bond_coeff 229 harmonic 10 5.63774006140759
bond_coeff 230 harmonic 10 5.20942434439737
bond_coeff 231 harmonic 10 6.04761523246973
bond_coeff 232 harmonic 10 7.19785065140976
bond_coeff 233 harmonic 10 3.79039984698185
bond_coeff 234 harmonic 10 5.46395058542809
bond_coeff 235 harmonic 10 5.15325314728472
bond_coeff 236 harmonic 10 6.36612228911761
bond_coeff 237 harmonic 10 7.25976377026139
bond_coeff 238 harmonic 10 7.34801578659165
bond_coeff 239 harmonic 10 7.03020269978042
bond_coeff 240 harmonic 10 3.8030002629503
bond_coeff 241 harmonic 10 5.4286529636734
bond_coeff 242 harmonic 10 5.2628401077745
bond_coeff 243 harmonic 10 6.17095981189313
bond_coeff 244 harmonic 10 7.18560616788868
bond_coeff 245 harmonic 10 3.79289098182375
bond_coeff 246 harmonic 10 5.48290990259734
bond_coeff 247 harmonic 10 5.21329895555588
bond_coeff 248 harmonic 10 6.11679605676044
bond_coeff 249 harmonic 10 3.7809539801484
bond_coeff 250 harmonic 10 5.62127618962099
bond_coeff 251 harmonic 10 5.28122826622748
bond_coeff 252 harmonic 10 6.13433109637881
bond_coeff 253 harmonic 10 3.79813967620991
bond_coeff 254 harmonic 10 5.34484321566125
bond_coeff 255 harmonic 10 4.86356998510353
bond_coeff 256 harmonic 10 6.12687987478129
bond_coeff 257 harmonic 10 7.05305338133774
bond_coeff 258 harmonic 10 7.36881340515554
bond_coeff 259 harmonic 10 3.80110168240735
bond_coeff 260 harmonic 10 5.3875786769197
bond_coeff 261 harmonic 10 5.18372067148683
bond_coeff 262 harmonic 10 6.27970039094221
bond_coeff 263 harmonic 10 5.67446640663243
bond_coeff 264 harmonic 10 5.99934154720334
bond_coeff 265 harmonic 10 6.472128011713
bond_coeff 266 harmonic 10 4.72715411214825
bond_coeff 267 harmonic 10 3.80454123384146
bond_coeff 268 harmonic 10 5.49834938868021
bond_coeff 269 harmonic 10 5.03030148201874
bond_coeff 270 harmonic 10 6.50494127567651
bond_coeff 271 harmonic 10 6.43812224177207
bond_coeff 272 harmonic 10 3.80709915815178
bond_coeff 273 harmonic 10 5.30658995966336
bond_coeff 274 harmonic 10 5.15755261727887
bond_coeff 275 harmonic 10 6.03160749717685
bond_coeff 276 harmonic 10 7.48852836009854
bond_coeff 277 harmonic 10 3.81737776490617
bond_coeff 278 harmonic 10 5.33777004000736
bond_coeff 279 harmonic 10 4.72764856984951
bond_coeff 280 harmonic 10 5.78999861830727
bond_coeff 281 harmonic 10 5.64499450841186
bond_coeff 282 harmonic 10 5.15209491372199
bond_coeff 283 harmonic 10 7.49892352274644
bond_coeff 284 harmonic 10 7.03328522100447
bond_coeff 285 harmonic 10 3.78795538516496
bond_coeff 286 harmonic 10 5.50473650595559
bond_coeff 287 harmonic 10 5.24364806217962
bond_coeff 288 harmonic 10 6.40292909534379
bond_coeff 289 harmonic 10 4.79073804334989
bond_coeff 290 harmonic 10 6.28380402304207
bond_coeff 291 harmonic 10 7.33610414320842
bond_coeff 292 harmonic 10 3.80708313542008
bond_coeff 293 harmonic 10 5.42166551900798
bond_coeff 294 harmonic 10 4.98259219683891
bond_coeff 295 harmonic 10 6.47329375202454
bond_coeff 296 harmonic 10 6.10722129941267
bond_coeff 297 harmonic 10 6.26965397769287
bond_coeff 298 harmonic 10 3.7941361335619
bond_coeff 299 harmonic 10 5.19863030037721
bond_coeff 300 harmonic 10 4.89662148833255
bond_coeff 301 harmonic 10 6.34641481468081
bond_coeff 302 harmonic 10 6.59045377800345
bond_coeff 303 harmonic 10 5.2255710692708
bond_coeff 304 harmonic 10 5.11204156868858
bond_coeff 305 harmonic 10 5.68136902515581
bond_coeff 306 harmonic 10 3.78832179203403
bond_coeff 307 harmonic 10 5.22457816478996
bond_coeff 308 harmonic 10 5.10107968963434
bond_coeff 309 harmonic 10 6.05268940224095
bond_coeff 310 harmonic 10 5.91635986058995
bond_coeff 311 harmonic 10 7.46472812632851
bond_coeff 312 harmonic 10 7.27023177072093
bond_coeff 313 harmonic 10 5.88372509554958
bond_coeff 314 harmonic 10 3.7747817155433
bond_coeff 315 harmonic 10 5.65869278190644
bond_coeff 316 harmonic 10 5.23325644317188
bond_coeff 317 harmonic 10 6.06178084394347
bond_coeff 318 harmonic 10 3.80755735347481
bond_coeff 319 harmonic 10 5.35971808960136
bond_coeff 320 harmonic 10 4.8778353805761
bond_coeff 321 harmonic 10 6.37221751041189
bond_coeff 322 harmonic 10 5.34301122963447
bond_coeff 323 harmonic 10 7.43917918859332
bond_coeff 324 harmonic 10 6.91562896633415
bond_coeff 325 harmonic 10 3.75926229465304
bond_coeff 326 harmonic 10 5.29567927654235
bond_coeff 327 harmonic 10 5.18774295816592
bond_coeff 328 harmonic 10 6.41890753944938
bond_coeff 329 harmonic 10 5.09581377210745
bond_coeff 330 harmonic 10 5.87285799249394
bond_coeff 331 harmonic 10 6.29774030903148
bond_coeff 332 harmonic 10 5.3477911327949
bond_coeff 333 harmonic 10 7.24041400749984
bond_coeff 334 harmonic 10 5.80326184141298
bond_coeff 335 harmonic 10 3.8036248500608
bond_coeff 336 harmonic 10 5.44137574515858
bond_coeff 337 harmonic 10 4.93814023697181
bond_coeff 338 harmonic 10 5.05938543698738
bond_coeff 339 harmonic 10 5.65799805584979
bond_coeff 340 harmonic 10 3.81565957601042
bond_coeff 341 harmonic 10 5.23259715628864
bond_coeff 342 harmonic 10 7.20337427876686
bond_coeff 343 harmonic 10 6.43260957932316
bond_coeff 344 harmonic 10 3.8093961463728
bond_coeff 345 harmonic 10 5.59546343031566
bond_coeff 346 harmonic 10 6.27098501034727
bond_coeff 347 harmonic 10 4.29211765915149
bond_coeff 348 harmonic 10 7.35184289821267
bond_coeff 349 harmonic 10 3.80653333099817
bond_coeff 350 harmonic 10 6.99151550094829
bond_coeff 351 harmonic 10 7.34495452674827
bond_coeff 352 harmonic 10 3.80363838975264
bond_coeff 353 harmonic 10 5.54905766774865
bond_coeff 354 harmonic 10 3.78262422135744
bond_coeff 355 harmonic 10 6.37315565477575
bond_coeff 356 harmonic 10 6.54121433680321
bond_coeff 357 harmonic 10 5.91000482233305
bond_coeff 358 harmonic 10 3.79543106906186
bond_coeff 359 harmonic 10 6.14231926881044
bond_coeff 360 harmonic 10 6.73814818774416
bond_coeff 361 harmonic 10 4.24785981407108
bond_coeff 362 harmonic 10 5.1461609963156
bond_coeff 363 harmonic 10 6.12507444852713
bond_coeff 364 harmonic 10 3.82679617957371
bond_coeff 365 harmonic 10 6.90018651921815
bond_coeff 366 harmonic 10 6.2062995415948
bond_coeff 367 harmonic 10 7.25479958372387
bond_coeff 368 harmonic 10 6.35041604936245
bond_coeff 369 harmonic 10 5.28718488422715
bond_coeff 370 harmonic 10 6.03251705343631
bond_coeff 371 harmonic 10 3.82708988658484
bond_coeff 372 harmonic 10 5.5236500613272
bond_coeff 373 harmonic 10 5.43420601376134
bond_coeff 374 harmonic 10 6.92828846108474
bond_coeff 375 harmonic 10 6.79408779748981
bond_coeff 376 harmonic 10 5.14844996091055
bond_coeff 377 harmonic 10 7.02914582292898
bond_coeff 378 harmonic 10 6.03651273501514
bond_coeff 379 harmonic 10 3.79687252880577
bond_coeff 380 harmonic 10 5.3792819223387
bond_coeff 381 harmonic 10 5.11997285149052
bond_coeff 382 harmonic 10 6.31076778213238
bond_coeff 383 harmonic 10 6.51973143618661
bond_coeff 384 harmonic 10 5.43989384087593
bond_coeff 385 harmonic 10 6.28770498671812
bond_coeff 386 harmonic 10 3.78173518374833
bond_coeff 387 harmonic 10 5.18203695471192
bond_coeff 388 harmonic 10 4.66865301773434
bond_coeff 389 harmonic 10 6.02609019182422
bond_coeff 390 harmonic 10 3.8227495340396
bond_coeff 391 harmonic 10 5.35467029797354
bond_coeff 392 harmonic 10 5.27283813519816
bond_coeff 393 harmonic 10 6.10816347194474
bond_coeff 394 harmonic 10 3.77046495806552
bond_coeff 395 harmonic 10 5.64479547902313
bond_coeff 396 harmonic 10 5.05906503219716
bond_coeff 397 harmonic 10 6.13775748950706
bond_coeff 398 harmonic 10 3.79878269976054
bond_coeff 399 harmonic 10 5.27290593506086
bond_coeff 400 harmonic 10 5.27728045493131
bond_coeff 401 harmonic 10 5.84422706608838
bond_coeff 402 harmonic 10 7.02738343909026
bond_coeff 403 harmonic 10 3.81550979555813
bond_coeff 404 harmonic 10 5.70485083065281
bond_coeff 405 harmonic 10 4.9270469857715
bond_coeff 406 harmonic 10 6.2231340978642
bond_coeff 407 harmonic 10 7.33926045320644
bond_coeff 408 harmonic 10 3.78035183547776
bond_coeff 409 harmonic 10 5.24793702325019
bond_coeff 410 harmonic 10 5.38040937104233
bond_coeff 411 harmonic 10 6.23538852037306
bond_coeff 412 harmonic 10 7.04233917104253
bond_coeff 413 harmonic 10 3.77406345998581
bond_coeff 414 harmonic 10 5.53979322718818
bond_coeff 415 harmonic 10 4.92418622718516
bond_coeff 416 harmonic 10 6.25994376971551
bond_coeff 417 harmonic 10 5.15193458809407
bond_coeff 418 harmonic 10 5.13635795092203
bond_coeff 419 harmonic 10 3.79218855016466
bond_coeff 420 harmonic 10 5.37961420549838
bond_coeff 421 harmonic 10 5.25731747186719
bond_coeff 422 harmonic 10 5.8177536042703
bond_coeff 423 harmonic 10 4.45708088326878
bond_coeff 424 harmonic 10 3.79264907419603
bond_coeff 425 harmonic 10 5.26080649710669
bond_coeff 426 harmonic 10 6.20027725186543
bond_coeff 427 harmonic 10 6.78576311110254
bond_coeff 428 harmonic 10 6.67865270844353
bond_coeff 429 harmonic 10 6.4759926652213
bond_coeff 430 harmonic 10 3.78469258989419
bond_coeff 431 harmonic 10 5.51781206639008
bond_coeff 432 harmonic 10 6.39620270160351
bond_coeff 433 harmonic 10 5.58405247110018
bond_coeff 434 harmonic 10 3.80237057636417
bond_coeff 435 harmonic 10 5.782985820491
bond_coeff 436 harmonic 10 3.81403211837551
bond_coeff 437 harmonic 10 6.72799360879601
bond_coeff 438 harmonic 10 3.79188436005108
bond_coeff 439 harmonic 10 3.80639921710795
bond_coeff 440 harmonic 10 5.63133847322286
bond_coeff 441 harmonic 10 5.14398230945636
bond_coeff 442 harmonic 10 6.25896748673453
bond_coeff 443 harmonic 10 3.78649785421834
bond_coeff 444 harmonic 10 5.28911419804867
bond_coeff 445 harmonic 10 5.00274294762383
bond_coeff 446 harmonic 10 6.3177193669868
bond_coeff 447 harmonic 10 3.78336107185132
bond_coeff 448 harmonic 10 5.38083348562284
bond_coeff 449 harmonic 10 5.03218163424176
bond_coeff 450 harmonic 10 6.27770993277007
bond_coeff 451 harmonic 10 6.86912847455919
bond_coeff 452 harmonic 10 3.8093109613157
bond_coeff 453 harmonic 10 5.34627580657789
bond_coeff 454 harmonic 10 5.06503573531322
bond_coeff 455 harmonic 10 6.13817839427953
bond_coeff 456 harmonic 10 3.79633784060377
bond_coeff 457 harmonic 10 5.44333656868652
bond_coeff 458 harmonic 10 5.01696541746104
bond_coeff 459 harmonic 10 6.59466777025197
bond_coeff 460 harmonic 10 3.78424021436271
bond_coeff 461 harmonic 10 5.38907812153434
bond_coeff 462 harmonic 10 5.42219272988336
bond_coeff 463 harmonic 10 6.23565834535535
bond_coeff 464 harmonic 10 3.80173973333262
bond_coeff 465 harmonic 10 5.39298488779637
bond_coeff 466 harmonic 10 4.43675793795425
bond_coeff 467 harmonic 10 6.26718892327334
bond_coeff 468 harmonic 10 5.46317947719092
bond_coeff 469 harmonic 10 3.79413402504445
bond_coeff 470 harmonic 10 5.02103335977764
bond_coeff 471 harmonic 10 4.93137404786942
bond_coeff 472 harmonic 10 5.15788357759266
bond_coeff 473 harmonic 10 6.86791394820872
bond_coeff 474 harmonic 10 3.78160032261475
bond_coeff 475 harmonic 10 5.1485721321547
bond_coeff 476 harmonic 10 7.4374819663647
bond_coeff 477 harmonic 10 3.78775421589099
bond_coeff 478 harmonic 10 5.69042098618371
bond_coeff 479 harmonic 10 3.80948671083127
bond_coeff 480 harmonic 10 6.69358379345475
bond_coeff 481 harmonic 10 3.81319354347508
bond_coeff 482 harmonic 10 6.3123159775157
bond_coeff 483 harmonic 10 3.8292140185683
bond_coeff 484 harmonic 10 6.71209088138711
bond_coeff 485 harmonic 10 3.80173697143819
bond_coeff 486 harmonic 10 6.80098478163274
bond_coeff 487 harmonic 10 3.80224801926439
bond_coeff 488 harmonic 10 6.18555890764933
bond_coeff 489 harmonic 10 6.73641009737383
bond_coeff 490 harmonic 10 3.795451093085
bond_coeff 491 harmonic 10 5.41372164042445
bond_coeff 492 harmonic 10 5.5466105866556
bond_coeff 493 harmonic 10 3.81141823997317
bond_coeff 494 harmonic 10 5.38532877362192
bond_coeff 495 harmonic 10 6.4958899313335
bond_coeff 496 harmonic 10 3.80939430881078
bond_coeff 497 harmonic 10 5.63452651071944
bond_coeff 498 harmonic 10 6.13048815348338
bond_coeff 499 harmonic 10 6.35824425450926
bond_coeff 500 harmonic 10 3.79819404454276
bond_coeff 501 harmonic 10 5.75692643691059
bond_coeff 502 harmonic 10 4.87152429943647
bond_coeff 503 harmonic 10 5.78013788762863
bond_coeff 504 harmonic 10 3.76976444887476
bond_coeff 505 harmonic 10 5.24428498462853
bond_coeff 506 harmonic 10 4.95788926863036
bond_coeff 507 harmonic 10 6.11695553359676
bond_coeff 508 harmonic 10 3.8047466407108
bond_coeff 509 harmonic 10 5.31961295584557
bond_coeff 510 harmonic 10 4.83164206041797
bond_coeff 511 harmonic 10 6.26588357695865
bond_coeff 512 harmonic 10 3.80469854259179
bond_coeff 513 harmonic 10 5.41239817456182
bond_coeff 514 harmonic 10 5.30187457414828
bond_coeff 515 harmonic 10 6.44120128547462
bond_coeff 516 harmonic 10 3.80038590145789
bond_coeff 517 harmonic 10 5.41751022149475
bond_coeff 518 harmonic 10 5.16237125747461
bond_coeff 519 harmonic 10 6.07447207582683
bond_coeff 520 harmonic 10 3.77317585065951
bond_coeff 521 harmonic 10 5.53783405312943
bond_coeff 522 harmonic 10 5.22506516705773
bond_coeff 523 harmonic 10 6.03855785763456
bond_coeff 524 harmonic 10 3.79158937650162
bond_coeff 525 harmonic 10 5.46774158131125
bond_coeff 526 harmonic 10 5.03263837365651
bond_coeff 527 harmonic 10 6.42837125561366
bond_coeff 528 harmonic 10 3.77151932250121
bond_coeff 529 harmonic 10 5.36723662604882
bond_coeff 530 harmonic 10 5.29697998863503
bond_coeff 531 harmonic 10 6.41742284721834
bond_coeff 532 harmonic 10 3.79304534642021
bond_coeff 533 harmonic 10 5.41419292231077
bond_coeff 534 harmonic 10 5.02976003403741
bond_coeff 535 harmonic 10 6.2912342191338
bond_coeff 536 harmonic 10 3.79173522282345
bond_coeff 537 harmonic 10 5.45454645227264
bond_coeff 538 harmonic 10 5.47863130717883
bond_coeff 539 harmonic 10 6.02130816351398
bond_coeff 540 harmonic 10 3.82145692112314
bond_coeff 541 harmonic 10 5.69850480389374
bond_coeff 542 harmonic 10 5.01701903524394
bond_coeff 543 harmonic 10 6.19218305607965
bond_coeff 544 harmonic 10 3.81887548893651
bond_coeff 545 harmonic 10 5.33198996623212
bond_coeff 546 harmonic 10 5.34629834558453
bond_coeff 547 harmonic 10 6.36650579203381
bond_coeff 548 harmonic 10 3.77822246565763
bond_coeff 549 harmonic 10 5.53767550511945
bond_coeff 550 harmonic 10 5.23529693522726
bond_coeff 551 harmonic 10 5.77519887103466
bond_coeff 552 harmonic 10 3.79591820249066
bond_coeff 553 harmonic 10 5.56686671297239
bond_coeff 554 harmonic 10 5.36253158498857
bond_coeff 555 harmonic 10 5.8384494516952
bond_coeff 556 harmonic 10 3.78404307586476
bond_coeff 557 harmonic 10 5.71751047222478
bond_coeff 558 harmonic 10 5.24867173673492
bond_coeff 559 harmonic 10 6.47713532358249
bond_coeff 560 harmonic 10 3.78596645521325
bond_coeff 561 harmonic 10 5.35910673526848
bond_coeff 562 harmonic 10 5.36759182501799
bond_coeff 563 harmonic 10 5.96013489780223
bond_coeff 564 harmonic 10 7.09011311616394
bond_coeff 565 harmonic 10 5.34297997375997
bond_coeff 566 harmonic 10 6.09003981924585
bond_coeff 567 harmonic 10 7.26553624999561
bond_coeff 568 harmonic 10 3.79157658501053
bond_coeff 569 harmonic 10 5.47806845521302
bond_coeff 570 harmonic 10 4.73674086266074
bond_coeff 571 harmonic 10 5.96401383298195
bond_coeff 572 harmonic 10 7.14635221634087
bond_coeff 573 harmonic 10 7.18658952494158
bond_coeff 574 harmonic 10 3.7947027551575
bond_coeff 575 harmonic 10 5.43821450478005
bond_coeff 576 harmonic 10 5.42914302629799
bond_coeff 577 harmonic 10 6.32085041746757
bond_coeff 578 harmonic 10 3.82899334029193
bond_coeff 579 harmonic 10 5.47409581574892
bond_coeff 580 harmonic 10 4.99983609731359
bond_coeff 581 harmonic 10 6.43365129611482
bond_coeff 582 harmonic 10 5.17446895826035
bond_coeff 583 harmonic 10 6.26330072725238
bond_coeff 584 harmonic 10 3.77552685065277
bond_coeff 585 harmonic 10 5.48783919225044
bond_coeff 586 harmonic 10 5.28933445718835
bond_coeff 587 harmonic 10 6.24199559435922
bond_coeff 588 harmonic 10 7.0906863560589
bond_coeff 589 harmonic 10 4.87258514548488
bond_coeff 590 harmonic 10 5.13761890373352
bond_coeff 591 harmonic 10 7.02960148230325
bond_coeff 592 harmonic 10 4.87672297757418
bond_coeff 593 harmonic 10 3.80837288090332
bond_coeff 594 harmonic 10 5.12287770691434
bond_coeff 595 harmonic 10 4.56117682183009
bond_coeff 596 harmonic 10 5.9161339572393
bond_coeff 597 harmonic 10 6.40786064143096
bond_coeff 598 harmonic 10 7.20846980988337
bond_coeff 599 harmonic 10 3.79045168812372
bond_coeff 600 harmonic 10 5.4689254886129
bond_coeff 601 harmonic 10 5.18188353786536
bond_coeff 602 harmonic 10 5.97799866175964
bond_coeff 603 harmonic 10 7.20134355519858
bond_coeff 604 harmonic 10 7.39256903924475
bond_coeff 605 harmonic 10 3.78077637529647
bond_coeff 606 harmonic 10 5.2911617816884
bond_coeff 607 harmonic 10 5.06612593605805
bond_coeff 608 harmonic 10 6.01629836361197
bond_coeff 609 harmonic 10 5.98244573732181
bond_coeff 610 harmonic 10 3.77069078551927
bond_coeff 611 harmonic 10 5.77630937537109
bond_coeff 612 harmonic 10 5.28006552989638
bond_coeff 613 harmonic 10 6.52490038238132
bond_coeff 614 harmonic 10 5.43496660523319
bond_coeff 615 harmonic 10 6.88155113328385
bond_coeff 616 harmonic 10 6.73514253746721
bond_coeff 617 harmonic 10 5.39305089907373
bond_coeff 618 harmonic 10 7.33297552157377
bond_coeff 619 harmonic 10 6.31594957231294
bond_coeff 620 harmonic 10 3.77487602445432
bond_coeff 621 harmonic 10 5.03266182054786
bond_coeff 622 harmonic 10 4.67681879058832
bond_coeff 623 harmonic 10 5.51987001658553
bond_coeff 624 harmonic 10 7.11079046238884
bond_coeff 625 harmonic 10 3.80955614212471
bond_coeff 626 harmonic 10 5.23232214222328
bond_coeff 627 harmonic 10 6.65052787378566
bond_coeff 628 harmonic 10 3.80853475762005
bond_coeff 629 harmonic 10 5.40558507471669
bond_coeff 630 harmonic 10 6.2089801900151
bond_coeff 631 harmonic 10 3.80096132577008
bond_coeff 632 harmonic 10 6.95205084849067
bond_coeff 633 harmonic 10 3.79756290270485
bond_coeff 634 harmonic 10 5.55161895306226
bond_coeff 635 harmonic 10 7.43923880514666
bond_coeff 636 harmonic 10 3.77922756658024
bond_coeff 637 harmonic 10 6.66097215127041
bond_coeff 638 harmonic 10 3.80814324835608
bond_coeff 639 harmonic 10 5.91685465429057
bond_coeff 640 harmonic 10 3.82319369114357
bond_coeff 641 harmonic 10 6.80795402452162
bond_coeff 642 harmonic 10 6.24025552361439
bond_coeff 643 harmonic 10 3.79155799111658
bond_coeff 644 harmonic 10 5.36017732915619
bond_coeff 645 harmonic 10 5.35300112086669
bond_coeff 646 harmonic 10 6.96780503458586
bond_coeff 647 harmonic 10 3.79489038049849
bond_coeff 648 harmonic 10 5.40598159449327
bond_coeff 649 harmonic 10 5.30207308512434
bond_coeff 650 harmonic 10 6.2419777314566
bond_coeff 651 harmonic 10 6.53730793216902
bond_coeff 652 harmonic 10 7.45616261893476
bond_coeff 653 harmonic 10 3.77953092327606
bond_coeff 654 harmonic 10 5.31551709620052
bond_coeff 655 harmonic 10 4.83215821346943