plugin load chromatin.so
units           real
atom_style   hybrid ellipsoid angle charge


boundary s s s

log     log.nucl_###R###.txt
read_data       nucl_###R###.txt

variable a equal 7.953813067973331
variable Q equal 3.5*${a}
variable l equal 1.0/${a}


set type 1 mass 71.08
set type 2 mass 156.2
set type 3 mass 114.1
set type 4 mass 115.1
set type 5 mass 103.1
set type 6 mass 128.1
set type 7 mass 129.1
set type 8 mass 57.05
set type 9 mass 137.1
set type 10 mass 113.2
set type 11 mass 113.2
set type 12 mass 128.2
set type 13 mass 131.2
set type 14 mass 147.2
set type 15 mass 97.12
set type 16 mass 87.08
set type 17 mass 101.1
set type 18 mass 186.2
set type 19 mass 163.2
set type 20 mass 99.07
set type 21 mass 71.08
set type 22 mass 156.2
set type 23 mass 114.1
set type 24 mass 115.1
set type 25 mass 103.1
set type 26 mass 128.1
set type 27 mass 129.1
set type 28 mass 57.05
set type 29 mass 137.1
set type 30 mass 113.2
set type 31 mass 113.2
set type 32 mass 128.2
set type 33 mass 131.2
set type 34 mass 147.2
set type 35 mass 97.12
set type 36 mass 87.08
set type 37 mass 101.1
set type 38 mass 186.2
set type 39 mass 163.2
set type 40 mass 99.07
set type 41 mass 650.0
set type 42 mass 0.000001
pair_style ljlambda $l 20.34 $Q
dielectric  80.0

bond_style hybrid harmonic harmonic/DNA zero

bond_coeff 1 harmonic 10 3.8
bond_coeff 2 harmonic/DNA 0 0
bond_coeff 3 zero  
###BOND_COEFFICIENTS###

pair_coeff 1 1 0.141964 5.04 1.0 15.120000000000001 0.0
pair_coeff 1 2 0.021633 5.8 1.0 17.4 0.0
pair_coeff 1 3 0.022985 5.359999999999999 1.0 16.08 0.0
pair_coeff 1 4 0.004056 5.3100000000000005 1.0 15.930000000000001 0.0
pair_coeff 1 5 0.256888 5.26 1.0 15.78 0.0
pair_coeff 1 6 0.029745 5.529999999999999 1.0 16.589999999999996 0.0
pair_coeff 1 7 0.021633 5.48 -1.0 16.44 0.0
pair_coeff 1 8 0.086531 4.77 1.0 14.309999999999999 0.0
pair_coeff 1 9 0.100051 5.5600000000000005 1.0 16.68 0.0
pair_coeff 1 10 0.393444 5.609999999999999 1.0 16.83 0.0
pair_coeff 1 11 0.438061 5.609999999999999 1.0 16.83 0.0
pair_coeff 1 12 0.048673 5.7 -1.0 17.1 0.0
pair_coeff 1 13 0.306913 5.609999999999999 1.0 16.83 0.0
pair_coeff 1 14 0.424541 5.7 1.0 17.1 0.0
pair_coeff 1 15 0.048673 5.3 1.0 15.899999999999999 0.0
pair_coeff 1 16 0.045969 5.109999999999999 1.0 15.329999999999998 0.0
pair_coeff 1 17 0.087883 5.33 1.0 15.99 0.0
pair_coeff 1 18 0.290689 5.91 1.0 17.73 0.0
pair_coeff 1 19 0.228495 5.75 1.0 17.25 0.0
pair_coeff 1 20 0.320433 5.45 1.0 16.35 0.0
pair_coeff 1 21 0.042429 5.04 1.0 15.120000000000001 0.0
pair_coeff 1 22 0.041486 5.8 -1.0 17.4 0.0
pair_coeff 1 23 0.040543 5.359999999999999 -1.0 16.08 0.0
pair_coeff 1 24 0.053744 5.3100000000000005 -1.0 15.930000000000001 0.0
pair_coeff 1 25 0.122573 5.26 1.0 15.78 0.0
pair_coeff 1 26 0.035829 5.529999999999999 -1.0 16.589999999999996 0.0
pair_coeff 1 27 0.071658 5.48 -1.0 16.44 0.0
pair_coeff 1 28 0.003771 4.77 1.0 14.309999999999999 0.0
pair_coeff 1 29 0.0132 5.5600000000000005 1.0 16.68 0.0
pair_coeff 1 30 0.217803 5.609999999999999 1.0 16.83 0.0
pair_coeff 1 31 0.248918 5.609999999999999 1.0 16.83 0.0
pair_coeff 1 32 0.090516 5.7 -1.0 17.1 0.0
pair_coeff 1 33 0.157459 5.609999999999999 1.0 16.83 0.0
pair_coeff 1 34 0.239489 5.7 1.0 17.1 0.0
pair_coeff 1 35 0.022629 5.3 -1.0 15.899999999999999 0.0
pair_coeff 1 36 0.024515 5.109999999999999 -1.0 15.329999999999998 0.0
pair_coeff 1 37 0.004714 5.33 1.0 15.99 0.0
pair_coeff 1 38 0.146145 5.91 1.0 17.73 0.0
pair_coeff 1 39 0.102773 5.75 1.0 17.25 0.0
pair_coeff 1 40 0.166888 5.45 1.0 16.35 0.0
pair_coeff 2 2 0.016224 6.56 -1.0 19.68 $Q
pair_coeff 2 3 0.004056 6.119999999999999 -1.0 18.36 0.0
pair_coeff 2 4 0.083826 6.07 1.0 18.21 $Q
pair_coeff 2 5 0.121684 6.02 1.0 18.06 0.0
pair_coeff 2 6 0.017577 6.289999999999999 1.0 18.869999999999997 0.0
pair_coeff 2 7 0.081122 6.24 1.0 18.72 $Q
pair_coeff 2 8 0.00676 5.529999999999999 1.0 16.589999999999996 0.0
pair_coeff 2 9 0.06625 6.32 1.0 18.96 $Q
pair_coeff 2 10 0.265 6.369999999999999 1.0 19.11 0.0
pair_coeff 2 11 0.319081 6.369999999999999 1.0 19.11 0.0
pair_coeff 2 12 0.14602 6.46 -1.0 19.38 $Q
pair_coeff 2 13 0.196046 6.369999999999999 1.0 19.11 0.0
pair_coeff 2 14 0.312321 6.46 1.0 19.38 0.0
pair_coeff 2 15 0.004056 6.06 1.0 18.18 0.0
pair_coeff 2 16 0.00676 5.869999999999999 -1.0 17.61 0.0
pair_coeff 2 17 0.031097 6.09 1.0 18.27 0.0
pair_coeff 2 18 0.235255 6.67 1.0 20.009999999999998 0.0
pair_coeff 2 19 0.201454 6.51 1.0 19.53 0.0
pair_coeff 2 20 0.189286 6.21 1.0 18.63 0.0
pair_coeff 2 21 0.041486 5.8 -1.0 17.4 0.0
pair_coeff 2 22 0.067887 6.56 -1.0 19.68 $Q
pair_coeff 2 23 0.059401 6.119999999999999 -1.0 18.36 0.0
pair_coeff 2 24 0.001886 6.07 1.0 18.21 $Q
pair_coeff 2 25 0.028286 6.02 1.0 18.06 0.0
pair_coeff 2 26 0.044315 6.289999999999999 -1.0 18.869999999999997 0.0
pair_coeff 2 27 0.002 6.24 -1.0 18.72 $Q
pair_coeff 2 28 0.051858 5.529999999999999 -1.0 16.589999999999996 0.0
pair_coeff 2 29 0.010372 6.32 -1.0 18.96 $Q
pair_coeff 2 30 0.12823 6.369999999999999 1.0 19.11 0.0
pair_coeff 2 31 0.165945 6.369999999999999 1.0 19.11 0.0
pair_coeff 2 32 0.158402 6.46 -1.0 19.38 $Q
pair_coeff 2 33 0.080144 6.369999999999999 1.0 19.11 0.0
pair_coeff 2 34 0.161231 6.46 1.0 19.38 0.0
pair_coeff 2 35 0.053744 6.06 -1.0 18.18 0.0
pair_coeff 2 36 0.061287 5.869999999999999 -1.0 17.61 0.0
pair_coeff 2 37 0.034886 6.09 -1.0 18.27 0.0
pair_coeff 2 38 0.107487 6.67 1.0 20.009999999999998 0.0
pair_coeff 2 39 0.083915 6.51 1.0 19.53 0.0
pair_coeff 2 40 0.07543 6.21 1.0 18.63 0.0
pair_coeff 3 3 0.001352 5.68 1.0 17.04 0.0
pair_coeff 3 4 0.001352 5.63 1.0 16.89 0.0
pair_coeff 3 5 0.124388 5.58 1.0 16.740000000000002 0.0
pair_coeff 3 6 0.005408 5.85 1.0 17.549999999999997 0.0
pair_coeff 3 7 0.021633 5.8 -1.0 17.4 0.0
pair_coeff 3 8 0.009464 5.09 1.0 15.27 0.0
pair_coeff 3 9 0.055434 5.88 1.0 17.64 0.0
pair_coeff 3 10 0.21227 5.93 1.0 17.79 0.0
pair_coeff 3 11 0.279872 5.93 1.0 17.79 0.0
pair_coeff 3 12 0.062194 6.02 -1.0 18.06 0.0
pair_coeff 3 13 0.173061 5.93 1.0 17.79 0.0
pair_coeff 3 14 0.281224 6.02 1.0 18.06 0.0
pair_coeff 3 15 0.018929 5.619999999999999 -1.0 16.86 0.0
pair_coeff 3 16 0.012168 5.43 -1.0 16.29 0.0
pair_coeff 3 17 0.028393 5.65 1.0 16.950000000000003 0.0
pair_coeff 3 18 0.189286 6.23 1.0 18.69 0.0
pair_coeff 3 19 0.147372 6.07 1.0 18.21 0.0
pair_coeff 3 20 0.156837 5.77 1.0 17.31 0.0
pair_coeff 3 21 0.040543 5.359999999999999 -1.0 16.08 0.0
pair_coeff 3 22 0.059401 6.119999999999999 -1.0 18.36 0.0
pair_coeff 3 23 0.055629 5.68 -1.0 17.04 0.0
pair_coeff 3 24 0.055629 5.63 -1.0 16.89 0.0
pair_coeff 3 25 0.030172 5.58 1.0 16.740000000000002 0.0
pair_coeff 3 26 0.052801 5.85 -1.0 17.549999999999997 0.0
pair_coeff 3 27 0.071658 5.8 -1.0 17.4 0.0
pair_coeff 3 28 0.049972 5.09 -1.0 15.27 0.0
pair_coeff 3 29 0.017915 5.88 -1.0 17.64 0.0
pair_coeff 3 30 0.091458 5.93 1.0 17.79 0.0
pair_coeff 3 31 0.138602 5.93 1.0 17.79 0.0
pair_coeff 3 32 0.099944 6.02 -1.0 18.06 0.0
pair_coeff 3 33 0.064115 5.93 1.0 17.79 0.0
pair_coeff 3 34 0.139545 6.02 1.0 18.06 0.0
pair_coeff 3 35 0.069772 5.619999999999999 -1.0 16.86 0.0
pair_coeff 3 36 0.065058 5.43 -1.0 16.29 0.0
pair_coeff 3 37 0.036772 5.65 -1.0 16.950000000000003 0.0
pair_coeff 3 38 0.07543 6.23 1.0 18.69 0.0
pair_coeff 3 39 0.046201 6.07 1.0 18.21 0.0
pair_coeff 3 40 0.052801 5.77 1.0 17.31 0.0
pair_coeff 4 4 0.062194 5.58 -1.0 16.740000000000002 $Q
pair_coeff 4 5 0.100051 5.53 1.0 16.59 0.0
pair_coeff 4 6 0.028393 5.8 -1.0 17.4 0.0
pair_coeff 4 7 0.087883 5.75 -1.0 17.25 $Q
pair_coeff 4 8 0.010816 5.04 -1.0 15.120000000000001 0.0
pair_coeff 4 9 0.087883 5.83 1.0 17.490000000000002 $Q
pair_coeff 4 10 0.202806 5.88 1.0 17.64 0.0
pair_coeff 4 11 0.233903 5.88 1.0 17.64 0.0
pair_coeff 4 12 0.001352 5.970000000000001 1.0 17.910000000000004 $Q
pair_coeff 4 13 0.121684 5.88 1.0 17.64 0.0
pair_coeff 4 14 0.244719 5.970000000000001 1.0 17.910000000000004 0.0
pair_coeff 4 15 0.045969 5.57 -1.0 16.71 0.0
pair_coeff 4 16 0.005408 5.38 -1.0 16.14 0.0
pair_coeff 4 17 0.017577 5.6 1.0 16.799999999999997 0.0
pair_coeff 4 18 0.158189 6.18 1.0 18.54 0.0
pair_coeff 4 19 0.147372 6.02 1.0 18.06 0.0
pair_coeff 4 20 0.109515 5.720000000000001 1.0 17.160000000000004 0.0
pair_coeff 4 21 0.053744 5.3100000000000005 -1.0 15.930000000000001 0.0
pair_coeff 4 22 0.001886 6.07 1.0 18.21 $Q
pair_coeff 4 23 0.055629 5.63 -1.0 16.89 0.0
pair_coeff 4 24 0.099944 5.58 -1.0 16.740000000000002 $Q
pair_coeff 4 25 0.0132 5.53 1.0 16.59 0.0
pair_coeff 4 26 0.076372 5.8 -1.0 17.4 0.0
pair_coeff 4 27 0.117859 5.75 -1.0 17.25 $Q
pair_coeff 4 28 0.064115 5.04 -1.0 15.120000000000001 0.0
pair_coeff 4 29 0.004714 5.83 1.0 17.490000000000002 $Q
pair_coeff 4 30 0.084858 5.88 1.0 17.64 0.0
pair_coeff 4 31 0.106544 5.88 1.0 17.64 0.0
pair_coeff 4 32 0.055629 5.970000000000001 -1.0 17.910000000000004 $Q
pair_coeff 4 33 0.028286 5.88 1.0 17.64 0.0
pair_coeff 4 34 0.114087 5.970000000000001 1.0 17.910000000000004 0.0
pair_coeff 4 35 0.08863 5.57 -1.0 16.71 0.0
pair_coeff 4 36 0.060344 5.38 -1.0 16.14 0.0
pair_coeff 4 37 0.044315 5.6 -1.0 16.799999999999997 0.0
pair_coeff 4 38 0.053744 6.18 1.0 18.54 0.0
pair_coeff 4 39 0.046201 6.02 1.0 18.06 0.0
pair_coeff 4 40 0.0198 5.720000000000001 1.0 17.160000000000004 0.0
pair_coeff 5 5 0.509719 5.48 1.0 16.44 0.0
pair_coeff 5 6 0.159541 5.75 1.0 17.25 0.0
pair_coeff 5 7 0.081122 5.7 1.0 17.1 0.0
pair_coeff 5 8 0.201454 4.99 1.0 14.97 0.0
pair_coeff 5 9 0.260944 5.78 1.0 17.34 0.0
pair_coeff 5 10 0.517831 5.83 1.0 17.490000000000002 0.0
pair_coeff 5 11 0.562449 5.83 1.0 17.490000000000002 0.0
pair_coeff 5 12 0.037857 5.92 1.0 17.759999999999998 0.0
pair_coeff 5 13 0.448877 5.83 1.0 17.490000000000002 0.0
pair_coeff 5 14 0.558393 5.92 1.0 17.759999999999998 0.0
pair_coeff 5 15 0.189286 5.52 1.0 16.56 0.0
pair_coeff 5 16 0.160893 5.33 1.0 15.99 0.0
pair_coeff 5 17 0.194694 5.550000000000001 1.0 16.650000000000002 0.0
pair_coeff 5 18 0.443469 6.130000000000001 1.0 18.39 0.0
pair_coeff 5 19 0.336658 5.970000000000001 1.0 17.910000000000004 0.0
pair_coeff 5 20 0.444821 5.67 1.0 17.009999999999998 0.0
pair_coeff 5 21 0.122573 5.26 1.0 15.78 0.0
pair_coeff 5 22 0.028286 6.02 1.0 18.06 0.0
pair_coeff 5 23 0.030172 5.58 1.0 16.740000000000002 0.0
pair_coeff 5 24 0.0132 5.53 1.0 16.59 0.0
pair_coeff 5 25 0.29889 5.48 1.0 16.44 0.0
pair_coeff 5 26 0.054686 5.75 1.0 17.25 0.0
pair_coeff 5 27 0.002 5.7 -1.0 17.1 0.0
pair_coeff 5 28 0.083915 4.99 1.0 14.97 0.0
pair_coeff 5 29 0.125402 5.78 1.0 17.34 0.0
pair_coeff 5 30 0.304547 5.83 1.0 17.490000000000002 0.0
pair_coeff 5 31 0.335662 5.83 1.0 17.490000000000002 0.0
pair_coeff 5 32 0.030172 5.92 -1.0 17.759999999999998 0.0
pair_coeff 5 33 0.256461 5.83 1.0 17.490000000000002 0.0
pair_coeff 5 34 0.332833 5.92 1.0 17.759999999999998 0.0
pair_coeff 5 35 0.07543 5.52 1.0 16.56 0.0
pair_coeff 5 36 0.055629 5.33 1.0 15.99 0.0
pair_coeff 5 37 0.079201 5.550000000000001 1.0 16.650000000000002 0.0
pair_coeff 5 38 0.252689 6.130000000000001 1.0 18.39 0.0
pair_coeff 5 39 0.178202 5.970000000000001 1.0 17.910000000000004 0.0
pair_coeff 5 40 0.253632 5.67 1.0 17.009999999999998 0.0
pair_coeff 6 6 0.017577 6.02 -1.0 18.06 0.0
pair_coeff 6 7 0.033801 5.97 -1.0 17.91 0.0
pair_coeff 6 8 0.001352 5.26 -1.0 15.78 0.0
pair_coeff 6 9 0.041913 6.05 1.0 18.15 0.0
pair_coeff 6 10 0.270408 6.1 1.0 18.299999999999997 0.0
pair_coeff 6 11 0.320433 6.1 1.0 18.299999999999997 0.0
pair_coeff 6 12 0.051378 6.1899999999999995 -1.0 18.57 0.0
pair_coeff 6 13 0.220383 6.1 1.0 18.299999999999997 0.0
pair_coeff 6 14 0.328546 6.1899999999999995 1.0 18.57 0.0
pair_coeff 6 15 0.008112 5.789999999999999 1.0 17.369999999999997 0.0
pair_coeff 6 16 0.024337 5.6 -1.0 16.799999999999997 0.0
pair_coeff 6 17 0.031097 5.82 1.0 17.46 0.0
pair_coeff 6 18 0.194694 6.4 1.0 19.200000000000003 0.0
pair_coeff 6 19 0.175765 6.24 1.0 18.72 0.0
pair_coeff 6 20 0.189286 5.9399999999999995 1.0 17.82 0.0
pair_coeff 6 21 0.035829 5.529999999999999 -1.0 16.589999999999996 0.0
pair_coeff 6 22 0.044315 6.289999999999999 -1.0 18.869999999999997 0.0
pair_coeff 6 23 0.052801 5.85 -1.0 17.549999999999997 0.0
pair_coeff 6 24 0.076372 5.8 -1.0 17.4 0.0
pair_coeff 6 25 0.054686 5.75 1.0 17.25 0.0
pair_coeff 6 26 0.06883 6.02 -1.0 18.06 0.0
pair_coeff 6 27 0.080144 5.97 -1.0 17.91 0.0
pair_coeff 6 28 0.057515 5.26 -1.0 15.78 0.0
pair_coeff 6 29 0.027343 6.05 -1.0 18.15 0.0
pair_coeff 6 30 0.132002 6.1 1.0 18.299999999999997 0.0
pair_coeff 6 31 0.166888 6.1 1.0 18.299999999999997 0.0
pair_coeff 6 32 0.092401 6.1899999999999995 -1.0 18.57 0.0
pair_coeff 6 33 0.097116 6.1 1.0 18.299999999999997 0.0
pair_coeff 6 34 0.172545 6.1899999999999995 1.0 18.57 0.0
pair_coeff 6 35 0.050915 5.789999999999999 -1.0 17.369999999999997 0.0
pair_coeff 6 36 0.073544 5.6 -1.0 16.799999999999997 0.0
pair_coeff 6 37 0.034886 5.82 -1.0 17.46 0.0
pair_coeff 6 38 0.079201 6.4 1.0 19.200000000000003 0.0
pair_coeff 6 39 0.066001 6.24 1.0 18.72 0.0
pair_coeff 6 40 0.07543 5.9399999999999995 1.0 17.82 0.0
pair_coeff 7 7 0.102755 5.92 -1.0 17.759999999999998 $Q
pair_coeff 7 8 0.060842 5.21 -1.0 15.629999999999999 0.0
pair_coeff 7 9 0.064898 6.0 1.0 18.0 $Q
pair_coeff 7 10 0.216326 6.05 1.0 18.15 0.0
pair_coeff 7 11 0.259592 6.05 1.0 18.15 0.0
pair_coeff 7 12 0.017577 6.140000000000001 1.0 18.42 $Q
pair_coeff 7 13 0.164949 6.05 1.0 18.15 0.0
pair_coeff 7 14 0.255536 6.140000000000001 1.0 18.42 0.0
pair_coeff 7 15 0.055434 5.74 -1.0 17.22 0.0
pair_coeff 7 16 0.025689 5.55 -1.0 16.65 0.0
pair_coeff 7 17 0.009464 5.77 1.0 17.31 0.0
pair_coeff 7 18 0.178469 6.35 1.0 19.049999999999997 0.0
pair_coeff 7 19 0.151428 6.1899999999999995 1.0 18.57 0.0
pair_coeff 7 20 0.135204 5.890000000000001 1.0 17.67 0.0
pair_coeff 7 21 0.071658 5.48 -1.0 16.44 0.0
pair_coeff 7 22 0.002 6.24 -1.0 18.72 $Q
pair_coeff 7 23 0.071658 5.8 -1.0 17.4 0.0
pair_coeff 7 24 0.117859 5.75 -1.0 17.25 $Q
pair_coeff 7 25 0.002 5.7 -1.0 17.1 0.0
pair_coeff 7 26 0.080144 5.97 -1.0 17.91 0.0
pair_coeff 7 27 0.12823 5.92 -1.0 17.759999999999998 $Q
pair_coeff 7 28 0.099001 5.21 -1.0 15.629999999999999 0.0
pair_coeff 7 29 0.011314 6.0 -1.0 18.0 $Q
pair_coeff 7 30 0.094287 6.05 1.0 18.15 0.0
pair_coeff 7 31 0.124459 6.05 1.0 18.15 0.0
pair_coeff 7 32 0.044315 6.140000000000001 -1.0 18.42 $Q
pair_coeff 7 33 0.058458 6.05 1.0 18.15 0.0
pair_coeff 7 34 0.12163 6.140000000000001 1.0 18.42 0.0
pair_coeff 7 35 0.09523 5.74 -1.0 17.22 0.0
pair_coeff 7 36 0.074487 5.55 -1.0 16.65 0.0
pair_coeff 7 37 0.049972 5.77 -1.0 17.31 0.0
pair_coeff 7 38 0.067887 6.35 1.0 19.049999999999997 0.0
pair_coeff 7 39 0.049029 6.1899999999999995 1.0 18.57 0.0
pair_coeff 7 40 0.037715 5.890000000000001 1.0 17.67 0.0
pair_coeff 8 8 0.077066 4.5 1.0 13.5 0.0
pair_coeff 8 9 0.064898 5.29 1.0 15.870000000000001 0.0
pair_coeff 8 10 0.28528 5.34 1.0 16.02 0.0
pair_coeff 8 11 0.336658 5.34 1.0 16.02 0.0
pair_coeff 8 12 0.070306 5.43 -1.0 16.29 0.0
pair_coeff 8 13 0.232551 5.34 1.0 16.02 0.0
pair_coeff 8 14 0.332602 5.43 1.0 16.29 0.0
pair_coeff 8 15 0.027041 5.029999999999999 1.0 15.089999999999998 0.0
pair_coeff 8 16 0.020281 4.84 1.0 14.52 0.0
pair_coeff 8 17 0.055434 5.0600000000000005 1.0 15.180000000000001 0.0
pair_coeff 8 18 0.236607 5.640000000000001 1.0 16.92 0.0
pair_coeff 8 19 0.181173 5.48 1.0 16.44 0.0
pair_coeff 8 20 0.231199 5.18 1.0 15.54 0.0
pair_coeff 8 21 0.003771 4.77 1.0 14.309999999999999 0.0
pair_coeff 8 22 0.051858 5.529999999999999 -1.0 16.589999999999996 0.0
pair_coeff 8 23 0.049972 5.09 -1.0 15.27 0.0
pair_coeff 8 24 0.064115 5.04 -1.0 15.120000000000001 0.0
pair_coeff 8 25 0.083915 4.99 1.0 14.97 0.0
pair_coeff 8 26 0.057515 5.26 -1.0 15.78 0.0
pair_coeff 8 27 0.099001 5.21 -1.0 15.629999999999999 0.0
pair_coeff 8 28 0.002829 4.5 -1.0 13.5 0.0
pair_coeff 8 29 0.011314 5.29 -1.0 15.870000000000001 0.0
pair_coeff 8 30 0.142373 5.34 1.0 16.02 0.0
pair_coeff 8 31 0.178202 5.34 1.0 16.02 0.0
pair_coeff 8 32 0.105601 5.43 -1.0 16.29 0.0
pair_coeff 8 33 0.105601 5.34 1.0 16.02 0.0
pair_coeff 8 34 0.175374 5.43 1.0 16.29 0.0
pair_coeff 8 35 0.037715 5.029999999999999 -1.0 15.089999999999998 0.0
pair_coeff 8 36 0.042429 4.84 -1.0 14.52 0.0
pair_coeff 8 37 0.017915 5.0600000000000005 -1.0 15.180000000000001 0.0
pair_coeff 8 38 0.10843 5.640000000000001 1.0 16.92 0.0
pair_coeff 8 39 0.069772 5.48 1.0 16.44 0.0
pair_coeff 8 40 0.104659 5.18 1.0 15.54 0.0
pair_coeff 9 9 0.186582 6.08 1.0 18.240000000000002 $Q
pair_coeff 9 10 0.333954 6.13 1.0 18.39 0.0
pair_coeff 9 11 0.388035 6.13 1.0 18.39 0.0
pair_coeff 9 12 0.043265 6.220000000000001 -1.0 18.660000000000004 $Q
pair_coeff 9 13 0.312321 6.13 1.0 18.39 0.0
pair_coeff 9 14 0.419132 6.220000000000001 1.0 18.660000000000004 0.0
pair_coeff 9 15 0.078418 5.82 1.0 17.46 0.0
pair_coeff 9 16 0.05949 5.63 1.0 16.89 0.0
pair_coeff 9 17 0.101403 5.85 1.0 17.549999999999997 0.0
pair_coeff 9 18 0.312321 6.43 1.0 19.29 0.0
pair_coeff 9 19 0.250127 6.27 1.0 18.81 0.0
pair_coeff 9 20 0.25824 5.970000000000001 1.0 17.910000000000004 0.0
pair_coeff 9 21 0.0132 5.5600000000000005 1.0 16.68 0.0
pair_coeff 9 22 0.010372 6.32 -1.0 18.96 $Q
pair_coeff 9 23 0.017915 5.88 -1.0 17.64 0.0
pair_coeff 9 24 0.004714 5.83 1.0 17.490000000000002 $Q
pair_coeff 9 25 0.125402 5.78 1.0 17.34 0.0
pair_coeff 9 26 0.027343 6.05 -1.0 18.15 0.0
pair_coeff 9 27 0.011314 6.0 -1.0 18.0 $Q
pair_coeff 9 28 0.011314 5.29 -1.0 15.870000000000001 0.0
pair_coeff 9 29 0.073544 6.08 1.0 18.240000000000002 $Q
pair_coeff 9 30 0.176317 6.13 1.0 18.39 0.0
pair_coeff 9 31 0.214031 6.13 1.0 18.39 0.0
pair_coeff 9 32 0.086744 6.220000000000001 -1.0 18.660000000000004 $Q
pair_coeff 9 33 0.161231 6.13 1.0 18.39 0.0
pair_coeff 9 34 0.235717 6.220000000000001 1.0 18.660000000000004 0.0
pair_coeff 9 35 0.001886 5.82 -1.0 17.46 0.0
pair_coeff 9 36 0.015086 5.63 -1.0 16.89 0.0
pair_coeff 9 37 0.014143 5.85 1.0 17.549999999999997 0.0
pair_coeff 9 38 0.161231 6.43 1.0 19.29 0.0
pair_coeff 9 39 0.117859 6.27 1.0 18.81 0.0
pair_coeff 9 40 0.123516 5.970000000000001 1.0 17.910000000000004 0.0
pair_coeff 10 10 0.658443 6.18 1.0 18.54 0.0
pair_coeff 10 11 0.726045 6.18 1.0 18.54 0.0
pair_coeff 10 12 0.181173 6.27 1.0 18.81 0.0
pair_coeff 10 13 0.588137 6.18 1.0 18.54 0.0
pair_coeff 10 14 0.699005 6.27 1.0 18.81 0.0
pair_coeff 10 15 0.282576 5.869999999999999 1.0 17.61 0.0
pair_coeff 10 16 0.250127 5.68 1.0 17.04 0.0
pair_coeff 10 17 0.319081 5.9 1.0 17.700000000000003 0.0
pair_coeff 10 18 0.555688 6.48 1.0 19.44 0.0
pair_coeff 10 19 0.48403 6.32 1.0 18.96 0.0
pair_coeff 10 20 0.592194 6.02 1.0 18.06 0.0
pair_coeff 10 21 0.217803 5.609999999999999 1.0 16.83 0.0
pair_coeff 10 22 0.12823 6.369999999999999 1.0 19.11 0.0
pair_coeff 10 23 0.091458 5.93 1.0 17.79 0.0
pair_coeff 10 24 0.084858 5.88 1.0 17.64 0.0
pair_coeff 10 25 0.304547 5.83 1.0 17.490000000000002 0.0
pair_coeff 10 26 0.132002 6.1 1.0 18.299999999999997 0.0
pair_coeff 10 27 0.094287 6.05 1.0 18.15 0.0
pair_coeff 10 28 0.142373 5.34 1.0 16.02 0.0
pair_coeff 10 29 0.176317 6.13 1.0 18.39 0.0
pair_coeff 10 30 0.402605 6.18 1.0 18.54 0.0
pair_coeff 10 31 0.449749 6.18 1.0 18.54 0.0
pair_coeff 10 32 0.069772 6.27 1.0 18.81 0.0
pair_coeff 10 33 0.353576 6.18 1.0 18.54 0.0
pair_coeff 10 34 0.430892 6.27 1.0 18.81 0.0
pair_coeff 10 35 0.140488 5.869999999999999 1.0 17.61 0.0
pair_coeff 10 36 0.117859 5.68 1.0 17.04 0.0
pair_coeff 10 37 0.165945 5.9 1.0 17.700000000000003 0.0
pair_coeff 10 38 0.330947 6.48 1.0 19.44 0.0
pair_coeff 10 39 0.280975 6.32 1.0 18.96 0.0
pair_coeff 10 40 0.356405 6.02 1.0 18.06 0.0
pair_coeff 11 11 0.770663 6.18 1.0 18.54 0.0
pair_coeff 11 12 0.229847 6.27 1.0 18.81 0.0
pair_coeff 11 13 0.640867 6.18 1.0 18.54 0.0
pair_coeff 11 14 0.758494 6.27 1.0 18.81 0.0
pair_coeff 11 15 0.342066 5.869999999999999 1.0 17.61 0.0
pair_coeff 11 16 0.304209 5.68 1.0 17.04 0.0
pair_coeff 11 17 0.360995 5.9 1.0 17.700000000000003 0.0
pair_coeff 11 18 0.604362 6.48 1.0 19.44 0.0
pair_coeff 11 19 0.540816 6.32 1.0 18.96 0.0
pair_coeff 11 20 0.650331 6.02 1.0 18.06 0.0
pair_coeff 11 21 0.248918 5.609999999999999 1.0 16.83 0.0
pair_coeff 11 22 0.165945 6.369999999999999 1.0 19.11 0.0
pair_coeff 11 23 0.138602 5.93 1.0 17.79 0.0
pair_coeff 11 24 0.106544 5.88 1.0 17.64 0.0
pair_coeff 11 25 0.335662 5.83 1.0 17.490000000000002 0.0
pair_coeff 11 26 0.166888 6.1 1.0 18.299999999999997 0.0
pair_coeff 11 27 0.124459 6.05 1.0 18.15 0.0
pair_coeff 11 28 0.178202 5.34 1.0 16.02 0.0
pair_coeff 11 29 0.214031 6.13 1.0 18.39 0.0
pair_coeff 11 30 0.449749 6.18 1.0 18.54 0.0
pair_coeff 11 31 0.480864 6.18 1.0 18.54 0.0
pair_coeff 11 32 0.103716 6.27 1.0 18.81 0.0
pair_coeff 11 33 0.390348 6.18 1.0 18.54 0.0
pair_coeff 11 34 0.472378 6.27 1.0 18.81 0.0
pair_coeff 11 35 0.181974 5.869999999999999 1.0 17.61 0.0
pair_coeff 11 36 0.155574 5.68 1.0 17.04 0.0
pair_coeff 11 37 0.195174 5.9 1.0 17.700000000000003 0.0
pair_coeff 11 38 0.364891 6.48 1.0 19.44 0.0
pair_coeff 11 39 0.320576 6.32 1.0 18.96 0.0
pair_coeff 11 40 0.396948 6.02 1.0 18.06 0.0
pair_coeff 12 12 0.209566 6.36 -1.0 19.080000000000002 $Q
pair_coeff 12 13 0.109515 6.27 1.0 18.81 0.0
pair_coeff 12 14 0.228495 6.36 1.0 19.080000000000002 0.0
pair_coeff 12 15 0.094643 5.96 -1.0 17.88 0.0
pair_coeff 12 16 0.083826 5.77 -1.0 17.31 0.0
pair_coeff 12 17 0.048673 5.99 -1.0 17.97 0.0
pair_coeff 12 18 0.137908 6.57 1.0 19.71 0.0
pair_coeff 12 19 0.12574 6.41 1.0 19.23 0.0
pair_coeff 12 20 0.110867 6.11 1.0 18.330000000000002 0.0
pair_coeff 12 21 0.090516 5.7 -1.0 17.1 0.0
pair_coeff 12 22 0.158402 6.46 -1.0 19.38 $Q
pair_coeff 12 23 0.099944 6.02 -1.0 18.06 0.0
pair_coeff 12 24 0.055629 5.970000000000001 -1.0 17.910000000000004 $Q
pair_coeff 12 25 0.030172 5.92 -1.0 17.759999999999998 0.0
pair_coeff 12 26 0.092401 6.1899999999999995 -1.0 18.57 0.0
pair_coeff 12 27 0.044315 6.140000000000001 -1.0 18.42 $Q
pair_coeff 12 28 0.105601 5.43 -1.0 16.29 0.0
pair_coeff 12 29 0.086744 6.220000000000001 -1.0 18.660000000000004 $Q
pair_coeff 12 30 0.069772 6.27 1.0 18.81 0.0
pair_coeff 12 31 0.103716 6.27 1.0 18.81 0.0
pair_coeff 12 32 0.202717 6.36 -1.0 19.080000000000002 $Q
pair_coeff 12 33 0.0198 6.27 1.0 18.81 0.0
pair_coeff 12 34 0.102773 6.36 1.0 19.080000000000002 0.0
pair_coeff 12 35 0.122573 5.96 -1.0 17.88 0.0
pair_coeff 12 36 0.11503 5.77 -1.0 17.31 0.0
pair_coeff 12 37 0.090516 5.99 -1.0 17.97 0.0
pair_coeff 12 38 0.039601 6.57 1.0 19.71 0.0
pair_coeff 12 39 0.031115 6.41 1.0 19.23 0.0
pair_coeff 12 40 0.020743 6.11 1.0 18.330000000000002 0.0
pair_coeff 13 13 0.512423 6.18 1.0 18.54 0.0
pair_coeff 13 14 0.661148 6.27 1.0 18.81 0.0
pair_coeff 13 15 0.240663 5.869999999999999 1.0 17.61 0.0
pair_coeff 13 16 0.183877 5.68 1.0 17.04 0.0
pair_coeff 13 17 0.248775 5.9 1.0 17.700000000000003 0.0
pair_coeff 13 18 0.524592 6.48 1.0 19.44 0.0
pair_coeff 13 19 0.438061 6.32 1.0 18.96 0.0
pair_coeff 13 20 0.493495 6.02 1.0 18.06 0.0
pair_coeff 13 21 0.157459 5.609999999999999 1.0 16.83 0.0
pair_coeff 13 22 0.080144 6.369999999999999 1.0 19.11 0.0
pair_coeff 13 23 0.064115 5.93 1.0 17.79 0.0
pair_coeff 13 24 0.028286 5.88 1.0 17.64 0.0
pair_coeff 13 25 0.256461 5.83 1.0 17.490000000000002 0.0
pair_coeff 13 26 0.097116 6.1 1.0 18.299999999999997 0.0
pair_coeff 13 27 0.058458 6.05 1.0 18.15 0.0
pair_coeff 13 28 0.105601 5.34 1.0 16.02 0.0
pair_coeff 13 29 0.161231 6.13 1.0 18.39 0.0
pair_coeff 13 30 0.353576 6.18 1.0 18.54 0.0
pair_coeff 13 31 0.390348 6.18 1.0 18.54 0.0
pair_coeff 13 32 0.0198 6.27 1.0 18.81 0.0
pair_coeff 13 33 0.300776 6.18 1.0 18.54 0.0
pair_coeff 13 34 0.404491 6.27 1.0 18.81 0.0
pair_coeff 13 35 0.111259 5.869999999999999 1.0 17.61 0.0
pair_coeff 13 36 0.071658 5.68 1.0 17.04 0.0
pair_coeff 13 37 0.116916 5.9 1.0 17.700000000000003 0.0
pair_coeff 13 38 0.309261 6.48 1.0 19.44 0.0
pair_coeff 13 39 0.248918 6.32 1.0 18.96 0.0
pair_coeff 13 40 0.287575 6.02 1.0 18.06 0.0
pair_coeff 14 14 0.75579 6.36 1.0 19.080000000000002 0.0
pair_coeff 14 15 0.348826 5.96 1.0 17.88 0.0
pair_coeff 14 16 0.317729 5.77 1.0 17.31 0.0
pair_coeff 14 17 0.352882 5.99 1.0 17.97 0.0
pair_coeff 14 18 0.607066 6.57 1.0 19.71 0.0
pair_coeff 14 19 0.539464 6.41 1.0 19.23 0.0
pair_coeff 14 20 0.624642 6.11 1.0 18.330000000000002 0.0
pair_coeff 14 21 0.239489 5.7 1.0 17.1 0.0
pair_coeff 14 22 0.161231 6.46 1.0 19.38 0.0
pair_coeff 14 23 0.139545 6.02 1.0 18.06 0.0
pair_coeff 14 24 0.114087 5.970000000000001 1.0 17.910000000000004 0.0
pair_coeff 14 25 0.332833 5.92 1.0 17.759999999999998 0.0
pair_coeff 14 26 0.172545 6.1899999999999995 1.0 18.57 0.0
pair_coeff 14 27 0.12163 6.140000000000001 1.0 18.42 0.0
pair_coeff 14 28 0.175374 5.43 1.0 16.29 0.0
pair_coeff 14 29 0.235717 6.220000000000001 1.0 18.660000000000004 0.0
pair_coeff 14 30 0.430892 6.27 1.0 18.81 0.0
pair_coeff 14 31 0.472378 6.27 1.0 18.81 0.0
pair_coeff 14 32 0.102773 6.36 1.0 19.080000000000002 0.0
pair_coeff 14 33 0.404491 6.27 1.0 18.81 0.0
pair_coeff 14 34 0.470492 6.36 1.0 19.080000000000002 0.0
pair_coeff 14 35 0.186688 5.96 1.0 17.88 0.0
pair_coeff 14 36 0.165002 5.77 1.0 17.31 0.0
pair_coeff 14 37 0.189517 5.99 1.0 17.97 0.0
pair_coeff 14 38 0.366776 6.57 1.0 19.71 0.0
pair_coeff 14 39 0.319633 6.41 1.0 19.23 0.0
pair_coeff 14 40 0.379034 6.11 1.0 18.330000000000002 0.0
pair_coeff 15 15 0.010816 5.56 1.0 16.68 0.0
pair_coeff 15 16 0.01352 5.369999999999999 -1.0 16.11 0.0
pair_coeff 15 17 0.031097 5.59 1.0 16.77 0.0
pair_coeff 15 18 0.27852 6.17 1.0 18.509999999999998 0.0
pair_coeff 15 19 0.20551 6.01 1.0 18.03 0.0
pair_coeff 15 20 0.223087 5.71 1.0 17.13 0.0
pair_coeff 15 21 0.022629 5.3 -1.0 15.899999999999999 0.0
pair_coeff 15 22 0.053744 6.06 -1.0 18.18 0.0
pair_coeff 15 23 0.069772 5.619999999999999 -1.0 16.86 0.0
pair_coeff 15 24 0.08863 5.57 -1.0 16.71 0.0
pair_coeff 15 25 0.07543 5.52 1.0 16.56 0.0
pair_coeff 15 26 0.050915 5.789999999999999 -1.0 17.369999999999997 0.0
pair_coeff 15 27 0.09523 5.74 -1.0 17.22 0.0
pair_coeff 15 28 0.037715 5.029999999999999 -1.0 15.089999999999998 0.0
pair_coeff 15 29 0.001886 5.82 -1.0 17.46 0.0
pair_coeff 15 30 0.140488 5.869999999999999 1.0 17.61 0.0
pair_coeff 15 31 0.181974 5.869999999999999 1.0 17.61 0.0
pair_coeff 15 32 0.122573 5.96 -1.0 17.88 0.0
pair_coeff 15 33 0.111259 5.869999999999999 1.0 17.61 0.0
pair_coeff 15 34 0.186688 5.96 1.0 17.88 0.0
pair_coeff 15 35 0.049029 5.56 -1.0 16.68 0.0
pair_coeff 15 36 0.066001 5.369999999999999 -1.0 16.11 0.0
pair_coeff 15 37 0.034886 5.59 -1.0 16.77 0.0
pair_coeff 15 38 0.137659 6.17 1.0 18.509999999999998 0.0
pair_coeff 15 39 0.086744 6.01 1.0 18.03 0.0
pair_coeff 15 40 0.099001 5.71 1.0 17.13 0.0
pair_coeff 16 16 0.002 5.18 -1.0 15.54 0.0
pair_coeff 16 17 0.039209 5.4 1.0 16.200000000000003 0.0
pair_coeff 16 18 0.178469 5.98 1.0 17.94 0.0
pair_coeff 16 19 0.150076 5.82 1.0 17.46 0.0
pair_coeff 16 20 0.186582 5.52 1.0 16.56 0.0
pair_coeff 16 21 0.024515 5.109999999999999 -1.0 15.329999999999998 0.0
pair_coeff 16 22 0.061287 5.869999999999999 -1.0 17.61 0.0
pair_coeff 16 23 0.065058 5.43 -1.0 16.29 0.0
pair_coeff 16 24 0.060344 5.38 -1.0 16.14 0.0
pair_coeff 16 25 0.055629 5.33 1.0 15.99 0.0
pair_coeff 16 26 0.073544 5.6 -1.0 16.799999999999997 0.0
pair_coeff 16 27 0.074487 5.55 -1.0 16.65 0.0
pair_coeff 16 28 0.042429 4.84 -1.0 14.52 0.0
pair_coeff 16 29 0.015086 5.63 -1.0 16.89 0.0
pair_coeff 16 30 0.117859 5.68 1.0 17.04 0.0
pair_coeff 16 31 0.155574 5.68 1.0 17.04 0.0
pair_coeff 16 32 0.11503 5.77 -1.0 17.31 0.0
pair_coeff 16 33 0.071658 5.68 1.0 17.04 0.0
pair_coeff 16 34 0.165002 5.77 1.0 17.31 0.0
pair_coeff 16 35 0.066001 5.369999999999999 -1.0 16.11 0.0
pair_coeff 16 36 0.056572 5.18 -1.0 15.54 0.0
pair_coeff 16 37 0.029229 5.4 -1.0 16.200000000000003 0.0
pair_coeff 16 38 0.067887 5.98 1.0 17.94 0.0
pair_coeff 16 39 0.048086 5.82 1.0 17.46 0.0
pair_coeff 16 40 0.073544 5.52 1.0 16.56 0.0
pair_coeff 17 17 0.060842 5.62 1.0 16.86 0.0
pair_coeff 17 18 0.209566 6.2 1.0 18.6 0.0
pair_coeff 17 19 0.181173 6.04 1.0 18.12 0.0
pair_coeff 17 20 0.242015 5.74 1.0 17.22 0.0
pair_coeff 17 21 0.004714 5.33 1.0 15.99 0.0
pair_coeff 17 22 0.034886 6.09 -1.0 18.27 0.0
pair_coeff 17 23 0.036772 5.65 -1.0 16.950000000000003 0.0
pair_coeff 17 24 0.044315 5.6 -1.0 16.799999999999997 0.0
pair_coeff 17 25 0.079201 5.550000000000001 1.0 16.650000000000002 0.0
pair_coeff 17 26 0.034886 5.82 -1.0 17.46 0.0
pair_coeff 17 27 0.049972 5.77 -1.0 17.31 0.0
pair_coeff 17 28 0.017915 5.0600000000000005 -1.0 15.180000000000001 0.0
pair_coeff 17 29 0.014143 5.85 1.0 17.549999999999997 0.0
pair_coeff 17 30 0.165945 5.9 1.0 17.700000000000003 0.0
pair_coeff 17 31 0.195174 5.9 1.0 17.700000000000003 0.0
pair_coeff 17 32 0.090516 5.99 -1.0 17.97 0.0
pair_coeff 17 33 0.116916 5.9 1.0 17.700000000000003 0.0
pair_coeff 17 34 0.189517 5.99 1.0 17.97 0.0
pair_coeff 17 35 0.034886 5.59 -1.0 16.77 0.0
pair_coeff 17 36 0.029229 5.4 -1.0 16.200000000000003 0.0
pair_coeff 17 37 0.014143 5.62 -1.0 16.86 0.0
pair_coeff 17 38 0.089573 6.2 1.0 18.6 0.0
pair_coeff 17 39 0.069772 6.04 1.0 18.12 0.0
pair_coeff 17 40 0.112202 5.74 1.0 17.22 0.0
pair_coeff 18 18 0.458342 6.78 1.0 20.34 0.0
pair_coeff 18 19 0.40426 6.62 1.0 19.86 0.0
pair_coeff 18 20 0.474566 6.32 1.0 18.96 0.0
pair_coeff 18 21 0.146145 5.91 1.0 17.73 0.0
pair_coeff 18 22 0.107487 6.67 1.0 20.009999999999998 0.0
pair_coeff 18 23 0.07543 6.23 1.0 18.69 0.0
pair_coeff 18 24 0.053744 6.18 1.0 18.54 0.0
pair_coeff 18 25 0.252689 6.130000000000001 1.0 18.39 0.0
pair_coeff 18 26 0.079201 6.4 1.0 19.200000000000003 0.0
pair_coeff 18 27 0.067887 6.35 1.0 19.049999999999997 0.0
pair_coeff 18 28 0.10843 5.640000000000001 1.0 16.92 0.0
pair_coeff 18 29 0.161231 6.43 1.0 19.29 0.0
pair_coeff 18 30 0.330947 6.48 1.0 19.44 0.0
pair_coeff 18 31 0.364891 6.48 1.0 19.44 0.0
pair_coeff 18 32 0.039601 6.57 1.0 19.71 0.0
pair_coeff 18 33 0.309261 6.48 1.0 19.44 0.0
pair_coeff 18 34 0.366776 6.57 1.0 19.71 0.0
pair_coeff 18 35 0.137659 6.17 1.0 18.509999999999998 0.0
pair_coeff 18 36 0.067887 5.98 1.0 17.94 0.0
pair_coeff 18 37 0.089573 6.2 1.0 18.6 0.0
pair_coeff 18 38 0.263061 6.78 1.0 20.34 0.0
pair_coeff 18 39 0.225346 6.62 1.0 19.86 0.0
pair_coeff 18 40 0.274375 6.32 1.0 18.96 0.0