plugin load chromatin.so
variable fname index nucl.txt
variable simname index nucl
variable SEED equal XXX
variable I index YYY

variable a equal 8.0
variable l equal 1.0/${a}
variable Q equal 3.5*${a}


# Initialization
units		real
atom_style   hybrid ellipsoid angle charge

boundary s s s

log 	log.${simname}_${I}.txt
read_data	${fname}

set type 1 mass 71.08
set type 2 mass 156.2
set type 3 mass 114.1
set type 4 mass 115.1
set type 5 mass 103.1
set type 6 mass 128.1
set type 7 mass 129.1
set type 8 mass 57.05
set type 9 mass 137.1
set type 10 mass 113.2
set type 11 mass 113.2
set type 12 mass 128.2
set type 13 mass 131.2
set type 14 mass 147.2
set type 15 mass 97.12
set type 16 mass 87.08
set type 17 mass 101.1
set type 18 mass 186.2
set type 19 mass 163.2
set type 20 mass 99.07
set type 21 mass 71.08
set type 22 mass 156.2
set type 23 mass 114.1
set type 24 mass 115.1
set type 25 mass 103.1
set type 26 mass 128.1
set type 27 mass 129.1
set type 28 mass 57.05
set type 29 mass 137.1
set type 30 mass 113.2
set type 31 mass 113.2
set type 32 mass 128.2
set type 33 mass 131.2
set type 34 mass 147.2
set type 35 mass 97.12
set type 36 mass 87.08
set type 37 mass 101.1
set type 38 mass 186.2
set type 39 mass 163.2
set type 40 mass 99.07
set type 41 mass 650.0
set type 42 mass 0.000001
pair_style ljlambda 0.125 28 28
dielectric  80.0

bond_style hybrid harmonic harmonic/DNA zero

bond_coeff 1 harmonic 10.0 3.8
bond_coeff 2 harmonic/DNA 0.0 0.0
bond_coeff 3 zero
bond_coeff 4 harmonic 10.0 2.9614721001555937
bond_coeff 5 harmonic 10.0 5.7012325860290884
bond_coeff 6 harmonic 10.0 6.27105549329616
bond_coeff 7 harmonic 10.0 4.712903351438473
bond_coeff 8 harmonic 10.0 6.143722243070556
bond_coeff 9 harmonic 10.0 6.930566859932882
bond_coeff 10 harmonic 10.0 3.7851385707791474
bond_coeff 11 harmonic 10.0 5.870071209108122
bond_coeff 12 harmonic 10.0 6.01176588033833
bond_coeff 13 harmonic 10.0 6.390213611453062
bond_coeff 14 harmonic 10.0 6.5913717085292625
bond_coeff 15 harmonic 10.0 3.8049607093897957
bond_coeff 16 harmonic 10.0 5.569709238371433
bond_coeff 17 harmonic 10.0 4.9269298756933795
bond_coeff 18 harmonic 10.0 6.363935024809734
bond_coeff 19 harmonic 10.0 3.7712185033487478
bond_coeff 20 harmonic 10.0 5.3439358154828165
bond_coeff 21 harmonic 10.0 5.323079841595462
bond_coeff 22 harmonic 10.0 6.053382938489838
bond_coeff 23 harmonic 10.0 3.8241209447401157
bond_coeff 24 harmonic 10.0 5.334790155198233
bond_coeff 25 harmonic 10.0 4.675678132634877
bond_coeff 26 harmonic 10.0 5.727631098455968
bond_coeff 27 harmonic 10.0 7.184774805100016
bond_coeff 28 harmonic 10.0 3.7817637419595704
bond_coeff 29 harmonic 10.0 5.525043800731361
bond_coeff 30 harmonic 10.0 5.417254932158909
bond_coeff 31 harmonic 10.0 6.138423087406084
bond_coeff 32 harmonic 10.0 5.474355669848277
bond_coeff 33 harmonic 10.0 6.100207701381984
bond_coeff 34 harmonic 10.0 6.163677311475667
bond_coeff 35 harmonic 10.0 3.799460751211931
bond_coeff 36 harmonic 10.0 5.548708137936244
bond_coeff 37 harmonic 10.0 5.122986726510224
bond_coeff 38 harmonic 10.0 5.920060134829716
bond_coeff 39 harmonic 10.0 3.8086955772285043
bond_coeff 40 harmonic 10.0 5.495463128799968
bond_coeff 41 harmonic 10.0 5.3053816073869795
bond_coeff 42 harmonic 10.0 6.120742275247341
bond_coeff 43 harmonic 10.0 3.7765249899874846
bond_coeff 44 harmonic 10.0 5.624953510918999
bond_coeff 45 harmonic 10.0 5.247715884077568
bond_coeff 46 harmonic 10.0 6.929033193743558
bond_coeff 47 harmonic 10.0 5.2392584398939555
bond_coeff 48 harmonic 10.0 3.807579414798852
bond_coeff 49 harmonic 10.0 5.401592450379793
bond_coeff 50 harmonic 10.0 7.312263876529622
bond_coeff 51 harmonic 10.0 5.396638212813612
bond_coeff 52 harmonic 10.0 7.0636991725299305
bond_coeff 53 harmonic 10.0 6.434145786349577
bond_coeff 54 harmonic 10.0 7.349175191815751
bond_coeff 55 harmonic 10.0 5.862822272591932
bond_coeff 56 harmonic 10.0 3.788550118449003
bond_coeff 57 harmonic 10.0 6.54724354213282
bond_coeff 58 harmonic 10.0 7.138699041141881
bond_coeff 59 harmonic 10.0 3.780263747412344
bond_coeff 60 harmonic 10.0 5.838774272054019
bond_coeff 61 harmonic 10.0 6.777066400737127
bond_coeff 62 harmonic 10.0 3.8151210989954065
bond_coeff 63 harmonic 10.0 6.799014708029392
bond_coeff 64 harmonic 10.0 7.334449536263786
bond_coeff 65 harmonic 10.0 6.2850844067522225
bond_coeff 66 harmonic 10.0 5.931981625055828
bond_coeff 67 harmonic 10.0 4.303080408265695
bond_coeff 68 harmonic 10.0 3.7911045883752728
bond_coeff 69 harmonic 10.0 6.5923583792145255
bond_coeff 70 harmonic 10.0 6.525772674557392
bond_coeff 71 harmonic 10.0 7.063495310396968
bond_coeff 72 harmonic 10.0 3.7490778866275822
bond_coeff 73 harmonic 10.0 6.347662089305007
bond_coeff 74 harmonic 10.0 7.044632140857315
bond_coeff 75 harmonic 10.0 7.355566803448938
bond_coeff 76 harmonic 10.0 3.7945398930568706
bond_coeff 77 harmonic 10.0 6.147117861241962
bond_coeff 78 harmonic 10.0 7.495483573459421
bond_coeff 79 harmonic 10.0 6.4403633437873715
bond_coeff 80 harmonic 10.0 6.834379415865058
bond_coeff 81 harmonic 10.0 6.4703989057862685
bond_coeff 82 harmonic 10.0 3.7570098482702967
bond_coeff 83 harmonic 10.0 6.956212331434401
bond_coeff 84 harmonic 10.0 7.158036672160871
bond_coeff 85 harmonic 10.0 5.5697110337969935
bond_coeff 86 harmonic 10.0 3.8064693614949796
bond_coeff 87 harmonic 10.0 6.2618074866606985
bond_coeff 88 harmonic 10.0 6.391899717611353
bond_coeff 89 harmonic 10.0 6.455029511938728
bond_coeff 90 harmonic 10.0 3.8125713108084813
bond_coeff 91 harmonic 10.0 5.905967405937829
bond_coeff 92 harmonic 10.0 5.536882245451847
bond_coeff 93 harmonic 10.0 6.150443317355257
bond_coeff 94 harmonic 10.0 3.857939735143621
bond_coeff 95 harmonic 10.0 5.357841822973119
bond_coeff 96 harmonic 10.0 4.853716617191406
bond_coeff 97 harmonic 10.0 6.141834497933007
bond_coeff 98 harmonic 10.0 3.778503142780229
bond_coeff 99 harmonic 10.0 5.406142247481114
bond_coeff 100 harmonic 10.0 5.2148472652609925
bond_coeff 101 harmonic 10.0 6.10101286672959
bond_coeff 102 harmonic 10.0 3.808711068064895
bond_coeff 103 harmonic 10.0 5.480600879465685
bond_coeff 104 harmonic 10.0 4.986677250434405
bond_coeff 105 harmonic 10.0 6.063160314555448
bond_coeff 106 harmonic 10.0 7.0598725909183395
bond_coeff 107 harmonic 10.0 3.797267701914104
bond_coeff 108 harmonic 10.0 5.433098747492082
bond_coeff 109 harmonic 10.0 5.248521410835628
bond_coeff 110 harmonic 10.0 6.0673298080786795
bond_coeff 111 harmonic 10.0 6.525445885148378
bond_coeff 112 harmonic 10.0 3.8171410767746083
bond_coeff 113 harmonic 10.0 5.554182838186013
bond_coeff 114 harmonic 10.0 5.154738887664439
bond_coeff 115 harmonic 10.0 6.139854965713772
bond_coeff 116 harmonic 10.0 3.8095092859842277
bond_coeff 117 harmonic 10.0 5.5279165152885685
bond_coeff 118 harmonic 10.0 5.263680176454502
bond_coeff 119 harmonic 10.0 6.367443285966523
bond_coeff 120 harmonic 10.0 3.794252759108182
bond_coeff 121 harmonic 10.0 5.422071928700322
bond_coeff 122 harmonic 10.0 5.1106370444397715
bond_coeff 123 harmonic 10.0 6.259750394384747
bond_coeff 124 harmonic 10.0 7.277698812124615
bond_coeff 125 harmonic 10.0 3.8092238054490832
bond_coeff 126 harmonic 10.0 5.42843891003667
bond_coeff 127 harmonic 10.0 5.112487554997075
bond_coeff 128 harmonic 10.0 6.049938346793289
bond_coeff 129 harmonic 10.0 3.80560783581283
bond_coeff 130 harmonic 10.0 5.44345653055115
bond_coeff 131 harmonic 10.0 4.989039386495156
bond_coeff 132 harmonic 10.0 6.435820227445758
bond_coeff 133 harmonic 10.0 3.8129579069273833
bond_coeff 134 harmonic 10.0 5.476456975088912
bond_coeff 135 harmonic 10.0 5.320138438048386
bond_coeff 136 harmonic 10.0 7.068640675547172
bond_coeff 137 harmonic 10.0 7.310371467989849
bond_coeff 138 harmonic 10.0 6.567263509255577
bond_coeff 139 harmonic 10.0 7.23481789680985
bond_coeff 140 harmonic 10.0 3.8380444239221543
bond_coeff 141 harmonic 10.0 5.297427772041824
bond_coeff 142 harmonic 10.0 5.238444521038667
bond_coeff 143 harmonic 10.0 6.697469522140428
bond_coeff 144 harmonic 10.0 7.301046568814636
bond_coeff 145 harmonic 10.0 6.351009840962311
bond_coeff 146 harmonic 10.0 7.350859677615945
bond_coeff 147 harmonic 10.0 3.8163372492482943
bond_coeff 148 harmonic 10.0 5.324054282217643
bond_coeff 149 harmonic 10.0 6.401001249804594
bond_coeff 150 harmonic 10.0 5.632767170760753
bond_coeff 151 harmonic 10.0 6.8792840470502465
bond_coeff 152 harmonic 10.0 5.546047060745163
bond_coeff 153 harmonic 10.0 3.838705510976328
bond_coeff 154 harmonic 10.0 6.864657675368819
bond_coeff 155 harmonic 10.0 6.393519844342408
bond_coeff 156 harmonic 10.0 3.8572442235357585
bond_coeff 157 harmonic 10.0 5.5776362376906565
bond_coeff 158 harmonic 10.0 6.326153017434854
bond_coeff 159 harmonic 10.0 7.272307886771567
bond_coeff 160 harmonic 10.0 3.8482927383451537
bond_coeff 161 harmonic 10.0 5.352529588895338
bond_coeff 162 harmonic 10.0 5.944315772231491
bond_coeff 163 harmonic 10.0 6.8908631534808515
bond_coeff 164 harmonic 10.0 6.927518747719125
bond_coeff 165 harmonic 10.0 3.817930591302048
bond_coeff 166 harmonic 10.0 5.777789456184777
bond_coeff 167 harmonic 10.0 3.796046496027144
bond_coeff 168 harmonic 10.0 6.139850649649397
bond_coeff 169 harmonic 10.0 3.782070993516656
bond_coeff 170 harmonic 10.0 6.696770863632716
bond_coeff 171 harmonic 10.0 3.7905868938727636
bond_coeff 172 harmonic 10.0 6.901213588927661
bond_coeff 173 harmonic 10.0 3.80485032557129
bond_coeff 174 harmonic 10.0 6.3251360459677155
bond_coeff 175 harmonic 10.0 5.431628116872503
bond_coeff 176 harmonic 10.0 5.637902535517964
bond_coeff 177 harmonic 10.0 6.765198444982975
bond_coeff 178 harmonic 10.0 3.793897995465887
bond_coeff 179 harmonic 10.0 6.028541946441119
bond_coeff 180 harmonic 10.0 6.516633026341127
bond_coeff 181 harmonic 10.0 4.3996903300118655
bond_coeff 182 harmonic 10.0 5.9976787176373545
bond_coeff 183 harmonic 10.0 3.7750223840395916
bond_coeff 184 harmonic 10.0 6.023993525892934
bond_coeff 185 harmonic 10.0 6.446809210764657
bond_coeff 186 harmonic 10.0 7.050364671419478
bond_coeff 187 harmonic 10.0 5.756383673800766
bond_coeff 188 harmonic 10.0 4.9399489875908715
bond_coeff 189 harmonic 10.0 6.809810056088204
bond_coeff 190 harmonic 10.0 3.7673744172832166
bond_coeff 191 harmonic 10.0 5.66897927320254
bond_coeff 192 harmonic 10.0 5.492667384795846
bond_coeff 193 harmonic 10.0 7.266237127977586
bond_coeff 194 harmonic 10.0 6.239833090716445
bond_coeff 195 harmonic 10.0 5.8129116628416035
bond_coeff 196 harmonic 10.0 5.40978788863297
bond_coeff 197 harmonic 10.0 6.764741088910929
bond_coeff 198 harmonic 10.0 3.7975552662206242
bond_coeff 199 harmonic 10.0 5.498648288443268
bond_coeff 200 harmonic 10.0 5.797841322423373
bond_coeff 201 harmonic 10.0 7.288897173098271
bond_coeff 202 harmonic 10.0 3.8102069497600826
bond_coeff 203 harmonic 10.0 5.326233378289018
bond_coeff 204 harmonic 10.0 5.141990470625172
bond_coeff 205 harmonic 10.0 6.279809392011839
bond_coeff 206 harmonic 10.0 6.027399107409423
bond_coeff 207 harmonic 10.0 3.7907187972731484
bond_coeff 208 harmonic 10.0 5.367770021154034
bond_coeff 209 harmonic 10.0 4.742074335140682
bond_coeff 210 harmonic 10.0 6.017092154853534
bond_coeff 211 harmonic 10.0 7.421969617291627
bond_coeff 212 harmonic 10.0 6.1187627834391565
bond_coeff 213 harmonic 10.0 4.097796114986682
bond_coeff 214 harmonic 10.0 6.751890772220777
bond_coeff 215 harmonic 10.0 3.792218611841884
bond_coeff 216 harmonic 10.0 5.20546424442624
bond_coeff 217 harmonic 10.0 4.889008181625392
bond_coeff 218 harmonic 10.0 6.081701160037387
bond_coeff 219 harmonic 10.0 3.814051651459391
bond_coeff 220 harmonic 10.0 5.431354987477806
bond_coeff 221 harmonic 10.0 5.327231269618397
bond_coeff 222 harmonic 10.0 6.010064974690383
bond_coeff 223 harmonic 10.0 3.7767357598857765
bond_coeff 224 harmonic 10.0 5.724008822494952
bond_coeff 225 harmonic 10.0 5.401958996512291
bond_coeff 226 harmonic 10.0 6.126111817458112
bond_coeff 227 harmonic 10.0 6.651706998958983
bond_coeff 228 harmonic 10.0 7.199869165477941
bond_coeff 229 harmonic 10.0 7.4596939615509585
bond_coeff 230 harmonic 10.0 3.788899048536396
bond_coeff 231 harmonic 10.0 5.507013528220179
bond_coeff 232 harmonic 10.0 5.006062824216244
bond_coeff 233 harmonic 10.0 6.096599133943447
bond_coeff 234 harmonic 10.0 7.269918362677813
bond_coeff 235 harmonic 10.0 3.789302046551582
bond_coeff 236 harmonic 10.0 5.222361247558414
bond_coeff 237 harmonic 10.0 4.871928673533716
bond_coeff 238 harmonic 10.0 5.839166807002509
bond_coeff 239 harmonic 10.0 3.813464959849506
bond_coeff 240 harmonic 10.0 5.497754541628799
bond_coeff 241 harmonic 10.0 5.050606597231655
bond_coeff 242 harmonic 10.0 6.089370575026607
bond_coeff 243 harmonic 10.0 6.617631600504819
bond_coeff 244 harmonic 10.0 7.4942925616765175
bond_coeff 245 harmonic 10.0 3.812468753970317
bond_coeff 246 harmonic 10.0 5.486052861575431
bond_coeff 247 harmonic 10.0 5.189901058787156
bond_coeff 248 harmonic 10.0 6.3119036748036645
bond_coeff 249 harmonic 10.0 7.367499575839832
bond_coeff 250 harmonic 10.0 3.7945605806206424
bond_coeff 251 harmonic 10.0 5.413435969880872
bond_coeff 252 harmonic 10.0 5.028649719358072
bond_coeff 253 harmonic 10.0 6.129370767052683
bond_coeff 254 harmonic 10.0 7.178894692081778
bond_coeff 255 harmonic 10.0 7.358189858925902
bond_coeff 256 harmonic 10.0 3.817343186039212
bond_coeff 257 harmonic 10.0 5.3639903057332345
bond_coeff 258 harmonic 10.0 5.080309045717596
bond_coeff 259 harmonic 10.0 6.036594818272969
bond_coeff 260 harmonic 10.0 7.428992798488906
bond_coeff 261 harmonic 10.0 3.8051755544258454
bond_coeff 262 harmonic 10.0 5.572732991988765
bond_coeff 263 harmonic 10.0 5.325469744538972
bond_coeff 264 harmonic 10.0 6.198701557584457
bond_coeff 265 harmonic 10.0 7.132667593544503
bond_coeff 266 harmonic 10.0 3.816856822046133
bond_coeff 267 harmonic 10.0 5.605041391461799
bond_coeff 268 harmonic 10.0 5.373559341814323
bond_coeff 269 harmonic 10.0 6.100023032743407
bond_coeff 270 harmonic 10.0 3.8052270628702307
bond_coeff 271 harmonic 10.0 5.533017260048996
bond_coeff 272 harmonic 10.0 4.99041731721908
bond_coeff 273 harmonic 10.0 6.116929703699398
bond_coeff 274 harmonic 10.0 7.174310419824326
bond_coeff 275 harmonic 10.0 7.488995860594394
bond_coeff 276 harmonic 10.0 3.81261550644698
bond_coeff 277 harmonic 10.0 5.358691444746558
bond_coeff 278 harmonic 10.0 5.193478795566609
bond_coeff 279 harmonic 10.0 6.123571261935308
bond_coeff 280 harmonic 10.0 6.253794128367198
bond_coeff 281 harmonic 10.0 6.718328735630615
bond_coeff 282 harmonic 10.0 7.06514854762446
bond_coeff 283 harmonic 10.0 5.6499838937823625
bond_coeff 284 harmonic 10.0 3.820284413495945
bond_coeff 285 harmonic 10.0 5.571709701698401
bond_coeff 286 harmonic 10.0 5.172843512034755
bond_coeff 287 harmonic 10.0 6.213074762144751
bond_coeff 288 harmonic 10.0 7.3907023346905305
bond_coeff 289 harmonic 10.0 3.808671947017747
bond_coeff 290 harmonic 10.0 5.49622952577492
bond_coeff 291 harmonic 10.0 5.343717526217113
bond_coeff 292 harmonic 10.0 6.148979264886164
bond_coeff 293 harmonic 10.0 7.052761515888661
bond_coeff 294 harmonic 10.0 7.089577208832688
bond_coeff 295 harmonic 10.0 7.193247389044808
bond_coeff 296 harmonic 10.0 3.7936906832265658
bond_coeff 297 harmonic 10.0 5.526444336098935
bond_coeff 298 harmonic 10.0 5.109205026224727
bond_coeff 299 harmonic 10.0 5.934802524094633
bond_coeff 300 harmonic 10.0 6.915511622432578
bond_coeff 301 harmonic 10.0 6.171414505605672
bond_coeff 302 harmonic 10.0 6.26929342111215
bond_coeff 303 harmonic 10.0 3.8093597887309127
bond_coeff 304 harmonic 10.0 5.509220362265433
bond_coeff 305 harmonic 10.0 5.03682737444912
bond_coeff 306 harmonic 10.0 6.27835933982756
bond_coeff 307 harmonic 10.0 5.138692927194615
bond_coeff 308 harmonic 10.0 6.958345277434859
bond_coeff 309 harmonic 10.0 3.8110894767769543
bond_coeff 310 harmonic 10.0 5.307158373367062
bond_coeff 311 harmonic 10.0 5.017773410587613
bond_coeff 312 harmonic 10.0 6.45771732115924
bond_coeff 313 harmonic 10.0 6.235773087597075
bond_coeff 314 harmonic 10.0 6.3462225772501855
bond_coeff 315 harmonic 10.0 3.765122707163748
bond_coeff 316 harmonic 10.0 5.341208571100739
bond_coeff 317 harmonic 10.0 4.888242424430278
bond_coeff 318 harmonic 10.0 6.42121242445693
bond_coeff 319 harmonic 10.0 7.459727407888309
bond_coeff 320 harmonic 10.0 5.284181393555674
bond_coeff 321 harmonic 10.0 5.208184424537981
bond_coeff 322 harmonic 10.0 5.156821986456387
bond_coeff 323 harmonic 10.0 3.7947497941234536
bond_coeff 324 harmonic 10.0 5.076891667152263
bond_coeff 325 harmonic 10.0 4.963979854914814
bond_coeff 326 harmonic 10.0 6.178331975541615
bond_coeff 327 harmonic 10.0 6.5222301400671245
bond_coeff 328 harmonic 10.0 6.542928854878359
bond_coeff 329 harmonic 10.0 3.79518128684257
bond_coeff 330 harmonic 10.0 5.5433237322025555
bond_coeff 331 harmonic 10.0 5.289132632105189
bond_coeff 332 harmonic 10.0 6.067306980860629
bond_coeff 333 harmonic 10.0 3.7714030545673594
bond_coeff 334 harmonic 10.0 5.5511556454489694
bond_coeff 335 harmonic 10.0 4.849831852755309
bond_coeff 336 harmonic 10.0 6.166538737411773
bond_coeff 337 harmonic 10.0 6.514672439961969
bond_coeff 338 harmonic 10.0 7.255208129337168
bond_coeff 339 harmonic 10.0 3.7827061741562753
bond_coeff 340 harmonic 10.0 5.00525463887703
bond_coeff 341 harmonic 10.0 4.8203888847270395
bond_coeff 342 harmonic 10.0 6.333552952332514
bond_coeff 343 harmonic 10.0 5.74223423416356
bond_coeff 344 harmonic 10.0 6.404534097028447
bond_coeff 345 harmonic 10.0 7.126338260284871
bond_coeff 346 harmonic 10.0 6.50714453504761
bond_coeff 347 harmonic 10.0 6.72970311380822
bond_coeff 348 harmonic 10.0 3.773781392714748
bond_coeff 349 harmonic 10.0 5.505514417381907
bond_coeff 350 harmonic 10.0 5.426190284168078
bond_coeff 351 harmonic 10.0 6.046484598508463
bond_coeff 352 harmonic 10.0 6.229960593775853
bond_coeff 353 harmonic 10.0 7.269283183368218
bond_coeff 354 harmonic 10.0 3.8035016760874374
bond_coeff 355 harmonic 10.0 5.6052492362070705
bond_coeff 356 harmonic 10.0 7.217944721317829
bond_coeff 357 harmonic 10.0 3.8296790988279885
bond_coeff 358 harmonic 10.0 5.87984191964377
bond_coeff 359 harmonic 10.0 7.304496012730782
bond_coeff 360 harmonic 10.0 4.6071962189600715
bond_coeff 361 harmonic 10.0 7.47451229178198
bond_coeff 362 harmonic 10.0 3.798926822143336
bond_coeff 363 harmonic 10.0 6.835197583098836
bond_coeff 364 harmonic 10.0 3.7934655659436327
bond_coeff 365 harmonic 10.0 6.0003310741991545
bond_coeff 366 harmonic 10.0 3.854051374852179
bond_coeff 367 harmonic 10.0 6.840965648210777
bond_coeff 368 harmonic 10.0 6.655095716817292
bond_coeff 369 harmonic 10.0 6.24075804690423
bond_coeff 370 harmonic 10.0 6.760782868869544
bond_coeff 371 harmonic 10.0 3.8038826217432065
bond_coeff 372 harmonic 10.0 6.336150566392819
bond_coeff 373 harmonic 10.0 6.550736370821217
bond_coeff 374 harmonic 10.0 4.22555712303123
bond_coeff 375 harmonic 10.0 5.430677766172475
bond_coeff 376 harmonic 10.0 5.967139515714377
bond_coeff 377 harmonic 10.0 3.8126960277472883
bond_coeff 378 harmonic 10.0 6.5326672959825505
bond_coeff 379 harmonic 10.0 6.606936203718035
bond_coeff 380 harmonic 10.0 6.338331799456388
bond_coeff 381 harmonic 10.0 5.284745026962047
bond_coeff 382 harmonic 10.0 5.515211056704902
bond_coeff 383 harmonic 10.0 7.212172002940586
bond_coeff 384 harmonic 10.0 3.828333971847281
bond_coeff 385 harmonic 10.0 5.507863288063705
bond_coeff 386 harmonic 10.0 5.577551523742295
bond_coeff 387 harmonic 10.0 7.157448777322813
bond_coeff 388 harmonic 10.0 5.6264758063996005
bond_coeff 389 harmonic 10.0 6.979477129413068
bond_coeff 390 harmonic 10.0 6.153342668826433
bond_coeff 391 harmonic 10.0 3.7869083696334687
bond_coeff 392 harmonic 10.0 5.225105740556834
bond_coeff 393 harmonic 10.0 5.084008457900113
bond_coeff 394 harmonic 10.0 6.354014242980571
bond_coeff 395 harmonic 10.0 6.368194877671381
bond_coeff 396 harmonic 10.0 4.797669121563095
bond_coeff 397 harmonic 10.0 6.248637771546691
bond_coeff 398 harmonic 10.0 3.806187199810323
bond_coeff 399 harmonic 10.0 5.400710416232286
bond_coeff 400 harmonic 10.0 5.084888789344371
bond_coeff 401 harmonic 10.0 5.87322969072383
bond_coeff 402 harmonic 10.0 3.817535330550318
bond_coeff 403 harmonic 10.0 5.511222096776721
bond_coeff 404 harmonic 10.0 5.100691521744859
bond_coeff 405 harmonic 10.0 5.927229369612752
bond_coeff 406 harmonic 10.0 3.7821714662347077
bond_coeff 407 harmonic 10.0 5.528283096947902
bond_coeff 408 harmonic 10.0 5.254091738826035
bond_coeff 409 harmonic 10.0 6.260279945817125
bond_coeff 410 harmonic 10.0 3.796216669264284
bond_coeff 411 harmonic 10.0 5.520074727755055
bond_coeff 412 harmonic 10.0 5.017563552163547
bond_coeff 413 harmonic 10.0 6.099526948870707
bond_coeff 414 harmonic 10.0 7.386833286327778
bond_coeff 415 harmonic 10.0 3.807889441672384
bond_coeff 416 harmonic 10.0 5.130460505646646
bond_coeff 417 harmonic 10.0 4.6950456866786725
bond_coeff 418 harmonic 10.0 6.221936997430947
bond_coeff 419 harmonic 10.0 7.101539340171258
bond_coeff 420 harmonic 10.0 3.7724619282373077
bond_coeff 421 harmonic 10.0 5.454619510103338
bond_coeff 422 harmonic 10.0 5.442399287079182
bond_coeff 423 harmonic 10.0 6.52202959208251
bond_coeff 424 harmonic 10.0 3.8131673186473236
bond_coeff 425 harmonic 10.0 5.582653938764246
bond_coeff 426 harmonic 10.0 5.552575348430671
bond_coeff 427 harmonic 10.0 6.86241276811589
bond_coeff 428 harmonic 10.0 5.486161590766357
bond_coeff 429 harmonic 10.0 5.291108957487084
bond_coeff 430 harmonic 10.0 3.820470913382276
bond_coeff 431 harmonic 10.0 5.764147985608976
bond_coeff 432 harmonic 10.0 5.886626708056149
bond_coeff 433 harmonic 10.0 5.319144668083398
bond_coeff 434 harmonic 10.0 2.8658714207026095
bond_coeff 435 harmonic 10.0 5.563819641217712
bond_coeff 436 harmonic 10.0 3.806057277551133
bond_coeff 437 harmonic 10.0 5.53982707311338
bond_coeff 438 harmonic 10.0 7.186791356370378
bond_coeff 439 harmonic 10.0 6.021839669071234
bond_coeff 440 harmonic 10.0 7.002782089998233
bond_coeff 441 harmonic 10.0 6.618840835070758
bond_coeff 442 harmonic 10.0 6.530683654871048
bond_coeff 443 harmonic 10.0 3.8215823947679115
bond_coeff 444 harmonic 10.0 5.988645756763381
bond_coeff 445 harmonic 10.0 7.0094471251304835
bond_coeff 446 harmonic 10.0 6.9106938146614505
bond_coeff 447 harmonic 10.0 4.752849355912712
bond_coeff 448 harmonic 10.0 7.3646179805879886
bond_coeff 449 harmonic 10.0 3.7765267111460994
bond_coeff 450 harmonic 10.0 5.43946881597826
bond_coeff 451 harmonic 10.0 5.229146488672891
bond_coeff 452 harmonic 10.0 6.389005399903802
bond_coeff 453 harmonic 10.0 3.767268904657596
bond_coeff 454 harmonic 10.0 5.4385966020656555
bond_coeff 455 harmonic 10.0 5.242579708502292
bond_coeff 456 harmonic 10.0 3.767729024226658
bond_coeff 457 harmonic 10.0 5.439423590786071
bond_coeff 458 harmonic 10.0 7.087746962187628
bond_coeff 459 harmonic 10.0 3.767667050045705
bond_coeff 460 harmonic 10.0 6.141738109037207
bond_coeff 461 harmonic 10.0 3.7676316168118125
bond_coeff 462 harmonic 10.0 6.859439117012408
bond_coeff 463 harmonic 10.0 3.768082403557549
bond_coeff 464 harmonic 10.0 3.804309529993574
bond_coeff 465 harmonic 10.0 5.4378599650965675
bond_coeff 466 harmonic 10.0 5.04232823207693
bond_coeff 467 harmonic 10.0 6.160982551509137
bond_coeff 468 harmonic 10.0 3.7497405243563073
bond_coeff 469 harmonic 10.0 5.4714423144176445
bond_coeff 470 harmonic 10.0 5.060700445590507
bond_coeff 471 harmonic 10.0 6.253725049920246
bond_coeff 472 harmonic 10.0 7.137394062261107
bond_coeff 473 harmonic 10.0 3.817200675888033
bond_coeff 474 harmonic 10.0 5.240067652235034
bond_coeff 475 harmonic 10.0 4.7476934399769295
bond_coeff 476 harmonic 10.0 6.044735064500346
bond_coeff 477 harmonic 10.0 7.261734434692569
bond_coeff 478 harmonic 10.0 3.8303921470262017
bond_coeff 479 harmonic 10.0 5.244402921210376
bond_coeff 480 harmonic 10.0 5.03957785930528
bond_coeff 481 harmonic 10.0 6.275747047164974
bond_coeff 482 harmonic 10.0 3.774652566793391
bond_coeff 483 harmonic 10.0 5.663250744934395
bond_coeff 484 harmonic 10.0 5.3949607042127665
bond_coeff 485 harmonic 10.0 6.977639930520927
bond_coeff 486 harmonic 10.0 3.7984213826272537
bond_coeff 487 harmonic 10.0 5.306845861714835
bond_coeff 488 harmonic 10.0 5.353124788382953
bond_coeff 489 harmonic 10.0 6.729958469411232
bond_coeff 490 harmonic 10.0 5.973894374693943
bond_coeff 491 harmonic 10.0 3.785181105310552
bond_coeff 492 harmonic 10.0 5.3307862459490964
bond_coeff 493 harmonic 10.0 5.064291855728699
bond_coeff 494 harmonic 10.0 5.337071575311687
bond_coeff 495 harmonic 10.0 7.355410185706843
bond_coeff 496 harmonic 10.0 3.797561059416959
bond_coeff 497 harmonic 10.0 5.474018633508664
bond_coeff 498 harmonic 10.0 3.787049247105188
bond_coeff 499 harmonic 10.0 6.044621162653617
bond_coeff 500 harmonic 10.0 3.795522230207595
bond_coeff 501 harmonic 10.0 6.5896988550312345
bond_coeff 502 harmonic 10.0 7.250241651145154
bond_coeff 503 harmonic 10.0 6.143629546123363
bond_coeff 504 harmonic 10.0 3.777368131384602
bond_coeff 505 harmonic 10.0 5.973951288720056
bond_coeff 506 harmonic 10.0 7.191415437867558
bond_coeff 507 harmonic 10.0 3.807688800309186
bond_coeff 508 harmonic 10.0 6.804421650662162
bond_coeff 509 harmonic 10.0 7.079954660871778
bond_coeff 510 harmonic 10.0 3.7833834064234164
bond_coeff 511 harmonic 10.0 6.413505515706683
bond_coeff 512 harmonic 10.0 3.7739871488917514
bond_coeff 513 harmonic 10.0 6.384057878810322
bond_coeff 514 harmonic 10.0 7.173307396173677
bond_coeff 515 harmonic 10.0 3.7638687543537013
bond_coeff 516 harmonic 10.0 5.538842929710143
bond_coeff 517 harmonic 10.0 5.76965614226706
bond_coeff 518 harmonic 10.0 3.803456980169494
bond_coeff 519 harmonic 10.0 5.670410919854049
bond_coeff 520 harmonic 10.0 6.714532746215471
bond_coeff 521 harmonic 10.0 3.835296207595964
bond_coeff 522 harmonic 10.0 5.513379090902413
bond_coeff 523 harmonic 10.0 6.42442923534846
bond_coeff 524 harmonic 10.0 7.421170662368568
bond_coeff 525 harmonic 10.0 3.7874780527416907
bond_coeff 526 harmonic 10.0 5.765786503158095
bond_coeff 527 harmonic 10.0 5.426751790896651
bond_coeff 528 harmonic 10.0 6.079681323885331
bond_coeff 529 harmonic 10.0 3.799586030082755
bond_coeff 530 harmonic 10.0 5.501837965625674
bond_coeff 531 harmonic 10.0 5.199602388644742
bond_coeff 532 harmonic 10.0 6.195627974628561
bond_coeff 533 harmonic 10.0 3.7911292512917614
bond_coeff 534 harmonic 10.0 5.470387463425244
bond_coeff 535 harmonic 10.0 5.116112977642294
bond_coeff 536 harmonic 10.0 6.186960562343996
bond_coeff 537 harmonic 10.0 3.779816133094315
bond_coeff 538 harmonic 10.0 5.378097154198681
bond_coeff 539 harmonic 10.0 4.842383917039211
bond_coeff 540 harmonic 10.0 6.2807046579185615
bond_coeff 541 harmonic 10.0 3.7995003618897
bond_coeff 542 harmonic 10.0 5.187766956986408
bond_coeff 543 harmonic 10.0 5.032210349339533
bond_coeff 544 harmonic 10.0 6.06480692190608
bond_coeff 545 harmonic 10.0 3.798274476653837
bond_coeff 546 harmonic 10.0 5.495717787514198
bond_coeff 547 harmonic 10.0 5.0276535282376
bond_coeff 548 harmonic 10.0 6.05576105869445
bond_coeff 549 harmonic 10.0 3.7931982547712955
bond_coeff 550 harmonic 10.0 5.483778715447953
bond_coeff 551 harmonic 10.0 5.239019278452796
bond_coeff 552 harmonic 10.0 6.25229581833746
bond_coeff 553 harmonic 10.0 3.822715526952017
bond_coeff 554 harmonic 10.0 5.466609003760926
bond_coeff 555 harmonic 10.0 5.071843254675769
bond_coeff 556 harmonic 10.0 6.189437858158048
bond_coeff 557 harmonic 10.0 3.8096301657772464
bond_coeff 558 harmonic 10.0 5.441237543059492
bond_coeff 559 harmonic 10.0 5.1582765532685535
bond_coeff 560 harmonic 10.0 6.21951364658041
bond_coeff 561 harmonic 10.0 3.8256758879967863
bond_coeff 562 harmonic 10.0 5.493458746545742
bond_coeff 563 harmonic 10.0 5.174587713045345
bond_coeff 564 harmonic 10.0 6.129267574514908
bond_coeff 565 harmonic 10.0 3.8188559805260978
bond_coeff 566 harmonic 10.0 5.475225109527453
bond_coeff 567 harmonic 10.0 5.130132649357122
bond_coeff 568 harmonic 10.0 6.417196740010382
bond_coeff 569 harmonic 10.0 3.785256794459257
bond_coeff 570 harmonic 10.0 5.486812189240667
bond_coeff 571 harmonic 10.0 5.30288119799038
bond_coeff 572 harmonic 10.0 6.380401946586122
bond_coeff 573 harmonic 10.0 3.8098101002543427
bond_coeff 574 harmonic 10.0 5.372808948771577
bond_coeff 575 harmonic 10.0 5.2778599829855315
bond_coeff 576 harmonic 10.0 5.715169726263615
bond_coeff 577 harmonic 10.0 3.81469068208682
bond_coeff 578 harmonic 10.0 5.7724030524557195
bond_coeff 579 harmonic 10.0 5.311470606150439
bond_coeff 580 harmonic 10.0 5.964399131513585
bond_coeff 581 harmonic 10.0 3.7895960206861123
bond_coeff 582 harmonic 10.0 5.550099188302852
bond_coeff 583 harmonic 10.0 5.291533237162928
bond_coeff 584 harmonic 10.0 6.489099552326192
bond_coeff 585 harmonic 10.0 3.8027212624645497
bond_coeff 586 harmonic 10.0 5.457439509513599
bond_coeff 587 harmonic 10.0 5.203723762845217
bond_coeff 588 harmonic 10.0 6.091837653779031
bond_coeff 589 harmonic 10.0 7.3779108831701
bond_coeff 590 harmonic 10.0 6.219616869229162
bond_coeff 591 harmonic 10.0 6.874000945592013
bond_coeff 592 harmonic 10.0 3.8213464904402468
bond_coeff 593 harmonic 10.0 5.372449534430254
bond_coeff 594 harmonic 10.0 4.964350813550544
bond_coeff 595 harmonic 10.0 5.737959567651204
bond_coeff 596 harmonic 10.0 3.8040621708904783
bond_coeff 597 harmonic 10.0 5.614083184278627
bond_coeff 598 harmonic 10.0 5.203139917396042
bond_coeff 599 harmonic 10.0 6.124175128129511
bond_coeff 600 harmonic 10.0 3.8279024282235796
bond_coeff 601 harmonic 10.0 5.488831387463089
bond_coeff 602 harmonic 10.0 5.203707524448318
bond_coeff 603 harmonic 10.0 6.274768282574269
bond_coeff 604 harmonic 10.0 5.470178881901403
bond_coeff 605 harmonic 10.0 3.818049109165569
bond_coeff 606 harmonic 10.0 5.474265338837722
bond_coeff 607 harmonic 10.0 5.158288669704324
bond_coeff 608 harmonic 10.0 6.172392566906288
bond_coeff 609 harmonic 10.0 7.425580718031411
bond_coeff 610 harmonic 10.0 5.820174739644844