plugin load chromatin.so
variable fname index nucl.txt
variable simname index nucl
variable SEED equal XXX
variable I index YYY

variable a equal 8.0
variable l equal 1.0/${a}
variable Q equal 3.5*${a}

# Initialization

units		real
atom_style   hybrid ellipsoid angle charge
boundary s s s
log 	log.${simname}_${I}.txt
read_data	${fname}

set type 1 mass 71.08
set type 2 mass 156.2
set type 3 mass 114.1
set type 4 mass 115.1
set type 5 mass 103.1
set type 6 mass 128.1
set type 7 mass 129.1
set type 8 mass 57.05
set type 9 mass 137.1
set type 10 mass 113.2
set type 11 mass 113.2
set type 12 mass 128.2
set type 13 mass 131.2
set type 14 mass 147.2
set type 15 mass 97.12
set type 16 mass 87.08
set type 17 mass 101.1
set type 18 mass 186.2
set type 19 mass 163.2
set type 20 mass 99.07
set type 21 mass 71.08
set type 22 mass 156.2
set type 23 mass 114.1
set type 24 mass 115.1
set type 25 mass 103.1
set type 26 mass 128.1
set type 27 mass 129.1
set type 28 mass 57.05
set type 29 mass 137.1
set type 30 mass 113.2
set type 31 mass 113.2
set type 32 mass 128.2
set type 33 mass 131.2
set type 34 mass 147.2
set type 35 mass 97.12
set type 36 mass 87.08
set type 37 mass 101.1
set type 38 mass 186.2
set type 39 mass 163.2
set type 40 mass 99.07
set type 41 mass 650.0
set type 42 mass 0.000001
pair_style ljlambda $l 20.34 $Q
dielectric  80.0

bond_style hybrid harmonic harmonic/DNA zero

bond_coeff 1 harmonic 10.0 3.8
bond_coeff 2 harmonic/DNA 0.0 0.0
bond_coeff 3 zero
bond_coeff 4 harmonic 10.0 3.8366782507789146
bond_coeff 5 harmonic 10.0 5.272494665715651
bond_coeff 6 harmonic 10.0 6.094605893739145
bond_coeff 7 harmonic 10.0 3.8574214185126325
bond_coeff 8 harmonic 10.0 5.563270710652125
bond_coeff 9 harmonic 10.0 5.5274063537974
bond_coeff 10 harmonic 10.0 6.4950366434686275
bond_coeff 11 harmonic 10.0 3.938489685145818
bond_coeff 12 harmonic 10.0 5.475832448130613
bond_coeff 13 harmonic 10.0 4.860783990263321
bond_coeff 14 harmonic 10.0 6.282969043374318
bond_coeff 15 harmonic 10.0 6.472311874438687
bond_coeff 16 harmonic 10.0 3.789168774282842
bond_coeff 17 harmonic 10.0 5.416050221332914
bond_coeff 18 harmonic 10.0 5.078746006643787
bond_coeff 19 harmonic 10.0 6.004969691846936
bond_coeff 20 harmonic 10.0 6.983007947868899
bond_coeff 21 harmonic 10.0 3.8744548003558004
bond_coeff 22 harmonic 10.0 5.284382745411249
bond_coeff 23 harmonic 10.0 4.590457602461896
bond_coeff 24 harmonic 10.0 5.965240984235263
bond_coeff 25 harmonic 10.0 3.869312729671763
bond_coeff 26 harmonic 10.0 5.503451735047749
bond_coeff 27 harmonic 10.0 5.503280839644652
bond_coeff 28 harmonic 10.0 6.2336265528181745
bond_coeff 29 harmonic 10.0 6.555905810793796
bond_coeff 30 harmonic 10.0 3.880528314546877
bond_coeff 31 harmonic 10.0 5.7031746422497065
bond_coeff 32 harmonic 10.0 5.232273024221883
bond_coeff 33 harmonic 10.0 5.959718198035877
bond_coeff 34 harmonic 10.0 4.431534722869702
bond_coeff 35 harmonic 10.0 5.519103188018857
bond_coeff 36 harmonic 10.0 5.304984542861551
bond_coeff 37 harmonic 10.0 7.230560144276518
bond_coeff 38 harmonic 10.0 3.789010556860466
bond_coeff 39 harmonic 10.0 5.492493149745381
bond_coeff 40 harmonic 10.0 5.048389941357524
bond_coeff 41 harmonic 10.0 6.085254390738303
bond_coeff 42 harmonic 10.0 7.4772454821277385
bond_coeff 43 harmonic 10.0 3.7857363880756347
bond_coeff 44 harmonic 10.0 5.397721741623969
bond_coeff 45 harmonic 10.0 5.063358569171261
bond_coeff 46 harmonic 10.0 5.940117843948886
bond_coeff 47 harmonic 10.0 3.882112826799363
bond_coeff 48 harmonic 10.0 5.5123316300817855
bond_coeff 49 harmonic 10.0 4.998999899979993
bond_coeff 50 harmonic 10.0 6.74139755540347
bond_coeff 51 harmonic 10.0 6.2861276633552325
bond_coeff 52 harmonic 10.0 4.756036269836485
bond_coeff 53 harmonic 10.0 3.814262707260741
bond_coeff 54 harmonic 10.0 5.410582223753749
bond_coeff 55 harmonic 10.0 7.284874741544971
bond_coeff 56 harmonic 10.0 4.586179346689344
bond_coeff 57 harmonic 10.0 7.488784948174158
bond_coeff 58 harmonic 10.0 7.371879000634761
bond_coeff 59 harmonic 10.0 5.467284517930259
bond_coeff 60 harmonic 10.0 3.7561416373720626
bond_coeff 61 harmonic 10.0 6.4850134926613565
bond_coeff 62 harmonic 10.0 6.226443607710576
bond_coeff 63 harmonic 10.0 3.933268361045287
bond_coeff 64 harmonic 10.0 5.6030348919134765
bond_coeff 65 harmonic 10.0 3.9206377032314674
bond_coeff 66 harmonic 10.0 7.068168079495576
bond_coeff 67 harmonic 10.0 7.069057999479122
bond_coeff 68 harmonic 10.0 3.9055601390837777
bond_coeff 69 harmonic 10.0 6.390813719707379
bond_coeff 70 harmonic 10.0 3.911636486178135
bond_coeff 71 harmonic 10.0 5.539485535679289
bond_coeff 72 harmonic 10.0 6.870211059348902
bond_coeff 73 harmonic 10.0 7.378083829830056
bond_coeff 74 harmonic 10.0 3.7556091383422827
bond_coeff 75 harmonic 10.0 6.38776173632048
bond_coeff 76 harmonic 10.0 5.359953358006022
bond_coeff 77 harmonic 10.0 6.005745665610557
bond_coeff 78 harmonic 10.0 6.372330813760371
bond_coeff 79 harmonic 10.0 3.8205366115246027
bond_coeff 80 harmonic 10.0 6.333747784684819
bond_coeff 81 harmonic 10.0 6.649470730817589
bond_coeff 82 harmonic 10.0 4.8901226978471675
bond_coeff 83 harmonic 10.0 7.319262326218407
bond_coeff 84 harmonic 10.0 3.9012281399579765
bond_coeff 85 harmonic 10.0 5.909712429551889
bond_coeff 86 harmonic 10.0 6.29395741962083
bond_coeff 87 harmonic 10.0 6.600560582253617
bond_coeff 88 harmonic 10.0 7.41357410430352
bond_coeff 89 harmonic 10.0 3.8755644750152403
bond_coeff 90 harmonic 10.0 6.008162863970995
bond_coeff 91 harmonic 10.0 5.218250760551879
bond_coeff 92 harmonic 10.0 6.5140310100582175
bond_coeff 93 harmonic 10.0 3.9959906156045824
bond_coeff 94 harmonic 10.0 5.329546040705539
bond_coeff 95 harmonic 10.0 5.208589060388614
bond_coeff 96 harmonic 10.0 6.441029498457507
bond_coeff 97 harmonic 10.0 3.8297388944939934
bond_coeff 98 harmonic 10.0 5.4385054013028356
bond_coeff 99 harmonic 10.0 4.860514376071718
bond_coeff 100 harmonic 10.0 5.985808299636738
bond_coeff 101 harmonic 10.0 6.045603443825924
bond_coeff 102 harmonic 10.0 5.646954931642366
bond_coeff 103 harmonic 10.0 6.630182576671629
bond_coeff 104 harmonic 10.0 3.927424219510805
bond_coeff 105 harmonic 10.0 5.5369576483841625
bond_coeff 106 harmonic 10.0 5.0084749175772005
bond_coeff 107 harmonic 10.0 6.2382113622415725
bond_coeff 108 harmonic 10.0 6.906912551929409
bond_coeff 109 harmonic 10.0 3.8837431686454433
bond_coeff 110 harmonic 10.0 5.345596318466278
bond_coeff 111 harmonic 10.0 4.926682453741072
bond_coeff 112 harmonic 10.0 6.09040228556375
bond_coeff 113 harmonic 10.0 6.474707792634321
bond_coeff 114 harmonic 10.0 3.8955899424862444
bond_coeff 115 harmonic 10.0 5.424912994694029
bond_coeff 116 harmonic 10.0 5.102950225114885
bond_coeff 117 harmonic 10.0 5.987620562460527
bond_coeff 118 harmonic 10.0 6.164352439632237
bond_coeff 119 harmonic 10.0 3.746865356534711
bond_coeff 120 harmonic 10.0 5.5396028738529495
bond_coeff 121 harmonic 10.0 5.201055758209082
bond_coeff 122 harmonic 10.0 6.1471619467848635
bond_coeff 123 harmonic 10.0 5.202124565982642
bond_coeff 124 harmonic 10.0 5.764373339748222
bond_coeff 125 harmonic 10.0 3.8039190317355698
bond_coeff 126 harmonic 10.0 5.580595039957654
bond_coeff 127 harmonic 10.0 5.300471677124601
bond_coeff 128 harmonic 10.0 6.0055908119018575
bond_coeff 129 harmonic 10.0 3.888786571669872
bond_coeff 130 harmonic 10.0 5.498108765748454
bond_coeff 131 harmonic 10.0 4.995592157092087
bond_coeff 132 harmonic 10.0 5.9460911530180836
bond_coeff 133 harmonic 10.0 3.849345528787955
bond_coeff 134 harmonic 10.0 5.559235558959503
bond_coeff 135 harmonic 10.0 5.538164045963239
bond_coeff 136 harmonic 10.0 3.7933548476249928
bond_coeff 137 harmonic 10.0 5.7989309359570775
bond_coeff 138 harmonic 10.0 6.40723029085112
bond_coeff 139 harmonic 10.0 6.554952326294993
bond_coeff 140 harmonic 10.0 3.8443388248176036
bond_coeff 141 harmonic 10.0 5.5560184484934885
bond_coeff 142 harmonic 10.0 5.599233965463484
bond_coeff 143 harmonic 10.0 6.697672804788229
bond_coeff 144 harmonic 10.0 6.643033945419836
bond_coeff 145 harmonic 10.0 3.903869874880577
bond_coeff 146 harmonic 10.0 5.699052552837199
bond_coeff 147 harmonic 10.0 5.4687567142815885
bond_coeff 148 harmonic 10.0 6.024289252683672
bond_coeff 149 harmonic 10.0 3.9052016593256744
bond_coeff 150 harmonic 10.0 5.66366489121662
bond_coeff 151 harmonic 10.0 3.843761178845534
bond_coeff 152 harmonic 10.0 7.461564246188604
bond_coeff 153 harmonic 10.0 6.945359673911775
bond_coeff 154 harmonic 10.0 3.926925132976179
bond_coeff 155 harmonic 10.0 7.086189455553666
bond_coeff 156 harmonic 10.0 7.347414511241342
bond_coeff 157 harmonic 10.0 3.9168099264579994
bond_coeff 158 harmonic 10.0 6.0754490369025325
bond_coeff 159 harmonic 10.0 3.8310078308455777
bond_coeff 160 harmonic 10.0 6.723674590579178
bond_coeff 161 harmonic 10.0 6.89292390789281
bond_coeff 162 harmonic 10.0 3.8049863337468173
bond_coeff 163 harmonic 10.0 6.67531272675669
bond_coeff 164 harmonic 10.0 5.104102369663053
bond_coeff 165 harmonic 10.0 5.950003445377153
bond_coeff 166 harmonic 10.0 7.277459790338937
bond_coeff 167 harmonic 10.0 3.796469544194976
bond_coeff 168 harmonic 10.0 6.85462617507331
bond_coeff 169 harmonic 10.0 6.212873731213281
bond_coeff 170 harmonic 10.0 4.648279251508034
bond_coeff 171 harmonic 10.0 6.322262253339407
bond_coeff 172 harmonic 10.0 3.8875057556227617
bond_coeff 173 harmonic 10.0 6.747678193275096
bond_coeff 174 harmonic 10.0 6.532723857626323
bond_coeff 175 harmonic 10.0 6.6525153889337245
bond_coeff 176 harmonic 10.0 5.794687308216024
bond_coeff 177 harmonic 10.0 5.28468362345372
bond_coeff 178 harmonic 10.0 6.981933829534625
bond_coeff 179 harmonic 10.0 3.774824499231708
bond_coeff 180 harmonic 10.0 5.327337139697465
bond_coeff 181 harmonic 10.0 5.036208891616787
bond_coeff 182 harmonic 10.0 6.248983917406077
bond_coeff 183 harmonic 10.0 7.363626823787321
bond_coeff 184 harmonic 10.0 6.802301081251853
bond_coeff 185 harmonic 10.0 6.245982788961254
bond_coeff 186 harmonic 10.0 3.918721857953192
bond_coeff 187 harmonic 10.0 5.5110888216395235
bond_coeff 188 harmonic 10.0 5.360270515561695
bond_coeff 189 harmonic 10.0 5.930345689755369
bond_coeff 190 harmonic 10.0 3.92159419114215
bond_coeff 191 harmonic 10.0 5.907045031147127
bond_coeff 192 harmonic 10.0 5.197422534295237
bond_coeff 193 harmonic 10.0 6.161475553793898
bond_coeff 194 harmonic 10.0 7.256121553557375
bond_coeff 195 harmonic 10.0 6.091715686077279
bond_coeff 196 harmonic 10.0 3.9229580675811584
bond_coeff 197 harmonic 10.0 5.323279064636752
bond_coeff 198 harmonic 10.0 4.9918533632309225
bond_coeff 199 harmonic 10.0 6.192043281502472
bond_coeff 200 harmonic 10.0 6.602249616607969
bond_coeff 201 harmonic 10.0 4.955590883033021
bond_coeff 202 harmonic 10.0 4.040863892783331
bond_coeff 203 harmonic 10.0 6.891120445907191
bond_coeff 204 harmonic 10.0 3.773923687622736
bond_coeff 205 harmonic 10.0 5.4408639019920475
bond_coeff 206 harmonic 10.0 5.032951420389432
bond_coeff 207 harmonic 10.0 6.2777862340159505
bond_coeff 208 harmonic 10.0 3.8561249979740118
bond_coeff 209 harmonic 10.0 5.510816636397906
bond_coeff 210 harmonic 10.0 5.227341580574209
bond_coeff 211 harmonic 10.0 6.058319981645092
bond_coeff 212 harmonic 10.0 3.858626698710306
bond_coeff 213 harmonic 10.0 5.3609887147801425
bond_coeff 214 harmonic 10.0 4.79575030626076
bond_coeff 215 harmonic 10.0 6.191203437135636
bond_coeff 216 harmonic 10.0 6.017163866806337
bond_coeff 217 harmonic 10.0 7.002286840739953
bond_coeff 218 harmonic 10.0 6.813948928484851
bond_coeff 219 harmonic 10.0 3.8042607691902504
bond_coeff 220 harmonic 10.0 5.700182540936739
bond_coeff 221 harmonic 10.0 5.360429087302628
bond_coeff 222 harmonic 10.0 6.39050858695926
bond_coeff 223 harmonic 10.0 6.456661753568942
bond_coeff 224 harmonic 10.0 4.029684975280308
bond_coeff 225 harmonic 10.0 5.208166663999892
bond_coeff 226 harmonic 10.0 5.056026107527515
bond_coeff 227 harmonic 10.0 5.901304940434771
bond_coeff 228 harmonic 10.0 3.8562055183820125
bond_coeff 229 harmonic 10.0 6.06397732515548
bond_coeff 230 harmonic 10.0 5.967957858430291
bond_coeff 231 harmonic 10.0 6.348086325815029
bond_coeff 232 harmonic 10.0 7.295245026728014
bond_coeff 233 harmonic 10.0 3.902845116065963
bond_coeff 234 harmonic 10.0 5.821821020952118
bond_coeff 235 harmonic 10.0 5.46667549796033
bond_coeff 236 harmonic 10.0 6.081891153251599
bond_coeff 237 harmonic 10.0 6.207761271183049
bond_coeff 238 harmonic 10.0 6.437002407953559
bond_coeff 239 harmonic 10.0 3.8500649345173437
bond_coeff 240 harmonic 10.0 5.520529050734176
bond_coeff 241 harmonic 10.0 5.0583594178350175
bond_coeff 242 harmonic 10.0 6.082918707331229
bond_coeff 243 harmonic 10.0 3.8724076489956585
bond_coeff 244 harmonic 10.0 5.5422919446741785
bond_coeff 245 harmonic 10.0 5.227628525440588
bond_coeff 246 harmonic 10.0 6.178883394271181
bond_coeff 247 harmonic 10.0 7.163839752534953
bond_coeff 248 harmonic 10.0 3.811238774991674
bond_coeff 249 harmonic 10.0 5.477974169343992
bond_coeff 250 harmonic 10.0 5.205704659313672
bond_coeff 251 harmonic 10.0 5.932100892601206
bond_coeff 252 harmonic 10.0 6.579144397260169
bond_coeff 253 harmonic 10.0 7.466967255854267
bond_coeff 254 harmonic 10.0 7.068719827521809
bond_coeff 255 harmonic 10.0 3.8466218945979134
bond_coeff 256 harmonic 10.0 5.672794725706184
bond_coeff 257 harmonic 10.0 4.914936418713878
bond_coeff 258 harmonic 10.0 6.035412164881529
bond_coeff 259 harmonic 10.0 6.628001207000493
bond_coeff 260 harmonic 10.0 3.8558397269595908
bond_coeff 261 harmonic 10.0 5.1821713595750465
bond_coeff 262 harmonic 10.0 4.705411777942493
bond_coeff 263 harmonic 10.0 6.205715107866289
bond_coeff 264 harmonic 10.0 7.314061799027945
bond_coeff 265 harmonic 10.0 3.871614650246047
bond_coeff 266 harmonic 10.0 5.414000369412608
bond_coeff 267 harmonic 10.0 5.2434912033873
bond_coeff 268 harmonic 10.0 6.428965702195023
bond_coeff 269 harmonic 10.0 5.776192517567269
bond_coeff 270 harmonic 10.0 6.20070326656583
bond_coeff 271 harmonic 10.0 6.727249140622058
bond_coeff 272 harmonic 10.0 4.803977518681786
bond_coeff 273 harmonic 10.0 3.870607187509484
bond_coeff 274 harmonic 10.0 5.749382575546706
bond_coeff 275 harmonic 10.0 5.393347754410048
bond_coeff 276 harmonic 10.0 7.055494312945063
bond_coeff 277 harmonic 10.0 6.835802805815848
bond_coeff 278 harmonic 10.0 3.9451489198761616
bond_coeff 279 harmonic 10.0 5.458479641805039
bond_coeff 280 harmonic 10.0 5.564674294152354
bond_coeff 281 harmonic 10.0 6.290731277045624
bond_coeff 282 harmonic 10.0 7.258229811737847
bond_coeff 283 harmonic 10.0 3.8589895050388723
bond_coeff 284 harmonic 10.0 5.589686932199341
bond_coeff 285 harmonic 10.0 4.6582722118828555
bond_coeff 286 harmonic 10.0 6.00533937425687
bond_coeff 287 harmonic 10.0 7.4784690946743835
bond_coeff 288 harmonic 10.0 6.063670588018445
bond_coeff 289 harmonic 10.0 5.866975370665878
bond_coeff 290 harmonic 10.0 7.42661975598589
bond_coeff 291 harmonic 10.0 3.942562618399369
bond_coeff 292 harmonic 10.0 5.327072366694495
bond_coeff 293 harmonic 10.0 5.06785960736879
bond_coeff 294 harmonic 10.0 6.527365471612578
bond_coeff 295 harmonic 10.0 5.4609706096993476
bond_coeff 296 harmonic 10.0 7.298801271441771
bond_coeff 297 harmonic 10.0 3.819856018228954
bond_coeff 298 harmonic 10.0 5.330761765451544
bond_coeff 299 harmonic 10.0 4.848453361640183
bond_coeff 300 harmonic 10.0 6.294322838876304
bond_coeff 301 harmonic 10.0 5.893615189338357
bond_coeff 302 harmonic 10.0 6.2100983084006085
bond_coeff 303 harmonic 10.0 3.835562670586916
bond_coeff 304 harmonic 10.0 5.331097447993217
bond_coeff 305 harmonic 10.0 4.879241744369705
bond_coeff 306 harmonic 10.0 6.472063117739197
bond_coeff 307 harmonic 10.0 6.850681790887687
bond_coeff 308 harmonic 10.0 4.867494221876389
bond_coeff 309 harmonic 10.0 5.701859345862557
bond_coeff 310 harmonic 10.0 5.654255034927246
bond_coeff 311 harmonic 10.0 3.867120504975255
bond_coeff 312 harmonic 10.0 5.386806196625235
bond_coeff 313 harmonic 10.0 5.1973935775540445
bond_coeff 314 harmonic 10.0 6.229598783228341
bond_coeff 315 harmonic 10.0 7.308590835448359
bond_coeff 316 harmonic 10.0 6.3995702980747025
bond_coeff 317 harmonic 10.0 7.497156861104066
bond_coeff 318 harmonic 10.0 6.5300076569633445
bond_coeff 319 harmonic 10.0 3.9830390407325784
bond_coeff 320 harmonic 10.0 5.577820452470649
bond_coeff 321 harmonic 10.0 5.131247411692395
bond_coeff 322 harmonic 10.0 6.383870299434354
bond_coeff 323 harmonic 10.0 3.8542108141615823
bond_coeff 324 harmonic 10.0 5.614597046983881
bond_coeff 325 harmonic 10.0 5.371740872380223
bond_coeff 326 harmonic 10.0 6.547245298596958
bond_coeff 327 harmonic 10.0 5.333169789159166
bond_coeff 328 harmonic 10.0 7.011203962230741
bond_coeff 329 harmonic 10.0 6.815350321150025
bond_coeff 330 harmonic 10.0 3.8036510092278384
bond_coeff 331 harmonic 10.0 5.33884079178242
bond_coeff 332 harmonic 10.0 4.941720348218812
bond_coeff 333 harmonic 10.0 6.371828701401174
bond_coeff 334 harmonic 10.0 4.886890626973338
bond_coeff 335 harmonic 10.0 5.901067700001412
bond_coeff 336 harmonic 10.0 6.560525893554584
bond_coeff 337 harmonic 10.0 5.83827029179021
bond_coeff 338 harmonic 10.0 6.444844528768722
bond_coeff 339 harmonic 10.0 3.836313334439722
bond_coeff 340 harmonic 10.0 5.4198377281981545
bond_coeff 341 harmonic 10.0 4.869691982045683
bond_coeff 342 harmonic 10.0 5.017961837240305
bond_coeff 343 harmonic 10.0 6.025251944939724
bond_coeff 344 harmonic 10.0 3.883439326164369
bond_coeff 345 harmonic 10.0 5.145736098946376
bond_coeff 346 harmonic 10.0 7.119073043592108
bond_coeff 347 harmonic 10.0 5.998246493768
bond_coeff 348 harmonic 10.0 3.931244205083186
bond_coeff 349 harmonic 10.0 5.367056921628454
bond_coeff 350 harmonic 10.0 6.4394953994858914
bond_coeff 351 harmonic 10.0 4.043624611657224
bond_coeff 352 harmonic 10.0 7.242032932816593
bond_coeff 353 harmonic 10.0 3.8608523670298367
bond_coeff 354 harmonic 10.0 7.157967658490777
bond_coeff 355 harmonic 10.0 7.254263642851719
bond_coeff 356 harmonic 10.0 3.800565747359228
bond_coeff 357 harmonic 10.0 5.572593651074874
bond_coeff 358 harmonic 10.0 3.8124663932945078
bond_coeff 359 harmonic 10.0 6.483532987499942
bond_coeff 360 harmonic 10.0 6.668911530377333
bond_coeff 361 harmonic 10.0 5.969690192966465
bond_coeff 362 harmonic 10.0 3.8551134873048833
bond_coeff 363 harmonic 10.0 6.587257471816337
bond_coeff 364 harmonic 10.0 7.278876355592242
bond_coeff 365 harmonic 10.0 4.523545180497264
bond_coeff 366 harmonic 10.0 5.351691321442224
bond_coeff 367 harmonic 10.0 6.446293508676129
bond_coeff 368 harmonic 10.0 3.8650796886998338
bond_coeff 369 harmonic 10.0 7.259865081390974
bond_coeff 370 harmonic 10.0 6.440594770671415
bond_coeff 371 harmonic 10.0 6.39807322558909
bond_coeff 372 harmonic 10.0 5.18232573271885
bond_coeff 373 harmonic 10.0 5.740801337792477
bond_coeff 374 harmonic 10.0 4.047221268969609
bond_coeff 375 harmonic 10.0 5.626695300085144
bond_coeff 376 harmonic 10.0 5.761709815671038
bond_coeff 377 harmonic 10.0 7.331889251754982
bond_coeff 378 harmonic 10.0 7.0501192188501225
bond_coeff 379 harmonic 10.0 5.151384377038846
bond_coeff 380 harmonic 10.0 6.5869128580845695
bond_coeff 381 harmonic 10.0 6.127428579755109
bond_coeff 382 harmonic 10.0 3.936813432206321
bond_coeff 383 harmonic 10.0 5.43743505708343
bond_coeff 384 harmonic 10.0 5.203518040710539
bond_coeff 385 harmonic 10.0 6.321835176592328
bond_coeff 386 harmonic 10.0 6.426898240986862
bond_coeff 387 harmonic 10.0 5.719001748557151
bond_coeff 388 harmonic 10.0 6.014465977956814
bond_coeff 389 harmonic 10.0 3.9372579290668863
bond_coeff 390 harmonic 10.0 5.576746363248035
bond_coeff 391 harmonic 10.0 5.021762638755446
bond_coeff 392 harmonic 10.0 5.820476011461596
bond_coeff 393 harmonic 10.0 3.8427203905566785
bond_coeff 394 harmonic 10.0 5.388329982471388
bond_coeff 395 harmonic 10.0 4.8942886102068135
bond_coeff 396 harmonic 10.0 5.770554566070763
bond_coeff 397 harmonic 10.0 3.8261468868824178
bond_coeff 398 harmonic 10.0 5.614723590703286
bond_coeff 399 harmonic 10.0 5.2498190445005
bond_coeff 400 harmonic 10.0 6.26938122943565
bond_coeff 401 harmonic 10.0 3.888079345898164
bond_coeff 402 harmonic 10.0 5.5686623169303475
bond_coeff 403 harmonic 10.0 5.177700358267157
bond_coeff 404 harmonic 10.0 6.00463154573201
bond_coeff 405 harmonic 10.0 3.848937645636782
bond_coeff 406 harmonic 10.0 5.397462366705289
bond_coeff 407 harmonic 10.0 4.923567913617115
bond_coeff 408 harmonic 10.0 6.023940653758138
bond_coeff 409 harmonic 10.0 3.862090237164347
bond_coeff 410 harmonic 10.0 5.778373473565042
bond_coeff 411 harmonic 10.0 5.561195914549312
bond_coeff 412 harmonic 10.0 6.525335240430166
bond_coeff 413 harmonic 10.0 6.712892148694181
bond_coeff 414 harmonic 10.0 4.024641723184799
bond_coeff 415 harmonic 10.0 5.609249593305688
bond_coeff 416 harmonic 10.0 5.2959173898390715
bond_coeff 417 harmonic 10.0 6.386681454401796
bond_coeff 418 harmonic 10.0 5.209126606255593
bond_coeff 419 harmonic 10.0 3.8411586793570565
bond_coeff 420 harmonic 10.0 5.589776381931564
bond_coeff 421 harmonic 10.0 5.216659946747535
bond_coeff 422 harmonic 10.0 6.016439229311635
bond_coeff 423 harmonic 10.0 7.4821520968234845
bond_coeff 424 harmonic 10.0 3.8166608442459236
bond_coeff 425 harmonic 10.0 5.5020615227385585
bond_coeff 426 harmonic 10.0 6.103974115279319
bond_coeff 427 harmonic 10.0 6.364982325191467
bond_coeff 428 harmonic 10.0 6.338253781602625
bond_coeff 429 harmonic 10.0 6.047239039429483
bond_coeff 430 harmonic 10.0 3.9334134031398276
bond_coeff 431 harmonic 10.0 5.735201914492637
bond_coeff 432 harmonic 10.0 6.257788826734247
bond_coeff 433 harmonic 10.0 4.875715332133323
bond_coeff 434 harmonic 10.0 3.8841601408798705
bond_coeff 435 harmonic 10.0 6.519716251494377
bond_coeff 436 harmonic 10.0 3.830717948374684
bond_coeff 437 harmonic 10.0 6.244940432061784
bond_coeff 438 harmonic 10.0 3.7648268220463965
bond_coeff 439 harmonic 10.0 3.8986691318961646
bond_coeff 440 harmonic 10.0 7.00494403974793
bond_coeff 441 harmonic 10.0 3.8867209830395626
bond_coeff 442 harmonic 10.0 6.535014996157237
bond_coeff 443 harmonic 10.0 6.2292294868627325
bond_coeff 444 harmonic 10.0 6.756707778200858
bond_coeff 445 harmonic 10.0 3.802083770776219
bond_coeff 446 harmonic 10.0 5.404907122236213
bond_coeff 447 harmonic 10.0 5.052534017698442
bond_coeff 448 harmonic 10.0 6.321937994001512
bond_coeff 449 harmonic 10.0 3.864518081210122
bond_coeff 450 harmonic 10.0 5.337224091229445
bond_coeff 451 harmonic 10.0 4.75271511875054
bond_coeff 452 harmonic 10.0 7.052701610021513
bond_coeff 453 harmonic 10.0 3.8733888263379788
bond_coeff 454 harmonic 10.0 5.288031864503097
bond_coeff 455 harmonic 10.0 5.462243128971853
bond_coeff 456 harmonic 10.0 6.830607586445009
bond_coeff 457 harmonic 10.0 3.8851254805990587
bond_coeff 458 harmonic 10.0 5.044002478191303
bond_coeff 459 harmonic 10.0 6.051413058121216
bond_coeff 460 harmonic 10.0 3.847193912451004
bond_coeff 461 harmonic 10.0 5.329596607624254
bond_coeff 462 harmonic 10.0 3.8867828598983927
bond_coeff 463 harmonic 10.0 7.101785761341991
bond_coeff 464 harmonic 10.0 6.945631792716915
bond_coeff 465 harmonic 10.0 7.458002413515291
bond_coeff 466 harmonic 10.0 3.7584172200542105
bond_coeff 467 harmonic 10.0 5.647132015457058
bond_coeff 468 harmonic 10.0 5.533787129986124
bond_coeff 469 harmonic 10.0 6.397579307831992
bond_coeff 470 harmonic 10.0 3.9360640238695312
bond_coeff 471 harmonic 10.0 5.626979651642591
bond_coeff 472 harmonic 10.0 5.182074970511313
bond_coeff 473 harmonic 10.0 6.179857684445489
bond_coeff 474 harmonic 10.0 5.998351523543793
bond_coeff 475 harmonic 10.0 3.826604238747447
bond_coeff 476 harmonic 10.0 5.40467214546823
bond_coeff 477 harmonic 10.0 4.767936765520299
bond_coeff 478 harmonic 10.0 6.081055911599563
bond_coeff 479 harmonic 10.0 3.8046998567561237
bond_coeff 480 harmonic 10.0 5.232081899206093
bond_coeff 481 harmonic 10.0 4.9379450179199
bond_coeff 482 harmonic 10.0 6.16068989643206
bond_coeff 483 harmonic 10.0 3.871459673043244
bond_coeff 484 harmonic 10.0 5.606861867390716
bond_coeff 485 harmonic 10.0 5.173300783832323
bond_coeff 486 harmonic 10.0 6.347865783080158
bond_coeff 487 harmonic 10.0 6.518051856191387
bond_coeff 488 harmonic 10.0 3.9126078259902286
bond_coeff 489 harmonic 10.0 5.454317647515591
bond_coeff 490 harmonic 10.0 5.09821537403039
bond_coeff 491 harmonic 10.0 6.247991677331207
bond_coeff 492 harmonic 10.0 3.861113958432202
bond_coeff 493 harmonic 10.0 5.410092420652339
bond_coeff 494 harmonic 10.0 4.964363000426136
bond_coeff 495 harmonic 10.0 6.202942849970494
bond_coeff 496 harmonic 10.0 3.784743188117247
bond_coeff 497 harmonic 10.0 5.573128475102645
bond_coeff 498 harmonic 10.0 5.286079927507718
bond_coeff 499 harmonic 10.0 6.323432612118177
bond_coeff 500 harmonic 10.0 3.996023022956715
bond_coeff 501 harmonic 10.0 5.5694344416646215
bond_coeff 502 harmonic 10.0 4.8770729951478105
bond_coeff 503 harmonic 10.0 6.471390963309211
bond_coeff 504 harmonic 10.0 5.586134620647816
bond_coeff 505 harmonic 10.0 3.90532969158814
bond_coeff 506 harmonic 10.0 5.271937120262332
bond_coeff 507 harmonic 10.0 4.702869443222921
bond_coeff 508 harmonic 10.0 5.135104672740376
bond_coeff 509 harmonic 10.0 7.1328185873468035
bond_coeff 510 harmonic 10.0 3.91885200026741
bond_coeff 511 harmonic 10.0 5.0945717189965825
bond_coeff 512 harmonic 10.0 3.891901848710991
bond_coeff 513 harmonic 10.0 5.760123349373705
bond_coeff 514 harmonic 10.0 3.8578855607703173
bond_coeff 515 harmonic 10.0 6.330774044301381
bond_coeff 516 harmonic 10.0 3.871020666439269
bond_coeff 517 harmonic 10.0 5.708994745136821
bond_coeff 518 harmonic 10.0 7.222063417057483
bond_coeff 519 harmonic 10.0 3.8965240920594684
bond_coeff 520 harmonic 10.0 7.202059497116082
bond_coeff 521 harmonic 10.0 3.8802939321654564
bond_coeff 522 harmonic 10.0 7.2017540224587
bond_coeff 523 harmonic 10.0 3.9262832297224715
bond_coeff 524 harmonic 10.0 6.4782606461920045
bond_coeff 525 harmonic 10.0 7.176719306201127
bond_coeff 526 harmonic 10.0 3.8153428417378272
bond_coeff 527 harmonic 10.0 5.2466179582660635
bond_coeff 528 harmonic 10.0 5.660865658183391
bond_coeff 529 harmonic 10.0 3.901038451489527
bond_coeff 530 harmonic 10.0 5.540222107461041
bond_coeff 531 harmonic 10.0 6.666520906739875
bond_coeff 532 harmonic 10.0 3.911316913777249
bond_coeff 533 harmonic 10.0 5.8659185129014375
bond_coeff 534 harmonic 10.0 6.231211760163496
bond_coeff 535 harmonic 10.0 6.291184308220522
bond_coeff 536 harmonic 10.0 3.9285366232224526
bond_coeff 537 harmonic 10.0 5.8680831623282215
bond_coeff 538 harmonic 10.0 4.840929662781728
bond_coeff 539 harmonic 10.0 5.726086010531109
bond_coeff 540 harmonic 10.0 3.8259900679431826
bond_coeff 541 harmonic 10.0 5.35725676069385
bond_coeff 542 harmonic 10.0 4.950282921207642
bond_coeff 543 harmonic 10.0 6.321052127612947
bond_coeff 544 harmonic 10.0 3.97258102497608
bond_coeff 545 harmonic 10.0 5.530227933819735
bond_coeff 546 harmonic 10.0 5.387197787347362
bond_coeff 547 harmonic 10.0 6.983738253972601
bond_coeff 548 harmonic 10.0 4.011618252027484
bond_coeff 549 harmonic 10.0 5.924736281050837
bond_coeff 550 harmonic 10.0 5.894794313629612
bond_coeff 551 harmonic 10.0 7.159518140210278
bond_coeff 552 harmonic 10.0 3.926217136124796
bond_coeff 553 harmonic 10.0 5.48879777364772
bond_coeff 554 harmonic 10.0 5.550300982829684
bond_coeff 555 harmonic 10.0 6.106013429398925
bond_coeff 556 harmonic 10.0 3.8935973084026214
bond_coeff 557 harmonic 10.0 5.90882391005182
bond_coeff 558 harmonic 10.0 4.988490853955719
bond_coeff 559 harmonic 10.0 6.131304918204593
bond_coeff 560 harmonic 10.0 3.846205922724372
bond_coeff 561 harmonic 10.0 5.195898478607921
bond_coeff 562 harmonic 10.0 5.1069364593658255
bond_coeff 563 harmonic 10.0 6.16176111189
bond_coeff 564 harmonic 10.0 3.938210380363157
bond_coeff 565 harmonic 10.0 5.73516346759183
bond_coeff 566 harmonic 10.0 5.2734049721219
bond_coeff 567 harmonic 10.0 6.15183232866435
bond_coeff 568 harmonic 10.0 3.92779849279465
bond_coeff 569 harmonic 10.0 5.66521853064822
bond_coeff 570 harmonic 10.0 5.424029867174393
bond_coeff 571 harmonic 10.0 6.3951529301495125
bond_coeff 572 harmonic 10.0 3.8767641145677016
bond_coeff 573 harmonic 10.0 5.643522038585477
bond_coeff 574 harmonic 10.0 5.4475499079861684
bond_coeff 575 harmonic 10.0 5.7913469935758455
bond_coeff 576 harmonic 10.0 3.8647433291229207
bond_coeff 577 harmonic 10.0 5.719886362507559
bond_coeff 578 harmonic 10.0 5.137178213766768
bond_coeff 579 harmonic 10.0 6.353079646911423
bond_coeff 580 harmonic 10.0 3.8996565233363714
bond_coeff 581 harmonic 10.0 5.591947871716981
bond_coeff 582 harmonic 10.0 5.493787400327774
bond_coeff 583 harmonic 10.0 6.443423080940759
bond_coeff 584 harmonic 10.0 3.804589333949195
bond_coeff 585 harmonic 10.0 5.316135908721666
bond_coeff 586 harmonic 10.0 4.983221849366128
bond_coeff 587 harmonic 10.0 6.108813387229962
bond_coeff 588 harmonic 10.0 3.82218013704222
bond_coeff 589 harmonic 10.0 5.797188973976962
bond_coeff 590 harmonic 10.0 5.605707894637391
bond_coeff 591 harmonic 10.0 6.347166375635675
bond_coeff 592 harmonic 10.0 3.937420602374088
bond_coeff 593 harmonic 10.0 5.581881403254632
bond_coeff 594 harmonic 10.0 5.274220321526202
bond_coeff 595 harmonic 10.0 6.725228694996172
bond_coeff 596 harmonic 10.0 3.9345115325793687
bond_coeff 597 harmonic 10.0 5.791212394654519
bond_coeff 598 harmonic 10.0 5.9144061409409465
bond_coeff 599 harmonic 10.0 6.211962733307416
bond_coeff 600 harmonic 10.0 7.056415520645015
bond_coeff 601 harmonic 10.0 5.440913618134378
bond_coeff 602 harmonic 10.0 6.254224252455288
bond_coeff 603 harmonic 10.0 7.459469217042171
bond_coeff 604 harmonic 10.0 3.860828926538973
bond_coeff 605 harmonic 10.0 5.506705094700457
bond_coeff 606 harmonic 10.0 4.885458013328946
bond_coeff 607 harmonic 10.0 5.934686175359245
bond_coeff 608 harmonic 10.0 7.4658154276676445
bond_coeff 609 harmonic 10.0 3.7349646584673333
bond_coeff 610 harmonic 10.0 5.646813260592211